 Entering Gaussian System
 *********************************************
 Gaussian 98:
 frequency output generated by the xtb code
 *********************************************
                         Standard orientation:
 --------------------------------------------------------------------
  Center     Atomic     Atomic              Coordinates (Angstroms)
  Number     Number      Type              X           Y           Z
 --------------------------------------------------------------------
    1          6             0       -1.022859    0.544326   -0.085782
    2          6             0       -0.615676   -0.866962   -0.406720
    3          6             0        0.469481    0.772506    0.268297
    4          6             0        0.662976   -0.671926   -0.101965
    5          1             0        0.661124    1.014953    1.312988
    6          1             0       -1.389682    1.127264   -0.929247
    7          1             0       -1.188339   -1.707606   -0.755578
    8          1             0       -1.713205    0.651223    0.749654
    9          1             0        0.987473    1.489525   -0.367240
   10          1             0        1.541654   -1.290680   -0.104208
 --------------------------------------------------------------------
     1 basis functions        1 primitive gaussians
     1 alpha electrons        1 beta electrons

 Harmonic frequencies (cm**-1), IR intensities (km*mol⁻¹),
 Raman scattering activities (A**4/amu), Raman depolarization ratios,
 reduced masses (AMU), force constants (mDyne/A) and normal coordinates:
                      1                      2                      3
                        a                      a                      a 
 Frequencies --   319.0658               696.2544               819.9797
 Red. masses --     5.7266                 1.6748                 3.6191
 Frc consts  --     0.0000                 0.0000                 0.0000
 IR Inten    --     0.0099                24.3620                 0.0050
 Raman Activ --     0.0000                 0.0000                 0.0000
 Depolar     --     0.0000                 0.0000                 0.0000
 Atom AN      X      Y      Z        X      Y      Z        X      Y      Z
   1   6    -0.04  -0.05   0.19    -0.03  -0.04   0.14    -0.00  -0.00   0.00
   2   6     0.08   0.11  -0.40    -0.02  -0.02   0.09    -0.06  -0.09   0.33
   3   6     0.04   0.05  -0.19    -0.03  -0.04   0.14    -0.00  -0.00   0.00
   4   6    -0.08  -0.11   0.40    -0.02  -0.03   0.10     0.07   0.09  -0.33
   5   1     0.14   0.27  -0.14     0.20   0.29  -0.08     0.06  -0.05   0.00
   6   1    -0.22   0.10   0.23     0.29  -0.12  -0.18    -0.03  -0.07  -0.03
   7   1     0.05   0.07  -0.25     0.08   0.12  -0.43     0.11   0.16  -0.57
   8   1     0.13  -0.23   0.20    -0.22   0.22  -0.18     0.03   0.07   0.02
   9   1    -0.05  -0.15  -0.29    -0.14  -0.19  -0.28    -0.07   0.05   0.01
  10   1    -0.05  -0.07   0.25     0.09   0.12  -0.44    -0.11  -0.16   0.57
                      4                      5                      6
                        a                      a                      a 
 Frequencies --   864.5064               868.0649               964.0270
 Red. masses --    10.8121                 2.2010                 5.0533
 Frc consts  --     0.0000                 0.0000                 0.0000
 IR Inten    --     3.4082                 3.5823                 5.5271
 Raman Activ --     0.0000                 0.0000                 0.0000
 Depolar     --     0.0000                 0.0000                 0.0000
 Atom AN      X      Y      Z        X      Y      Z        X      Y      Z
   1   6     0.35  -0.23  -0.00     0.02   0.04  -0.13    -0.18   0.31   0.05
   2   6    -0.26  -0.42  -0.16    -0.03  -0.04   0.18     0.02  -0.23  -0.06
   3   6     0.23   0.32   0.13     0.02   0.03  -0.14    -0.05  -0.34  -0.11
   4   6    -0.41   0.31   0.01    -0.03  -0.05   0.17    -0.07   0.22   0.05
   5   1     0.09   0.07   0.04    -0.37  -0.05   0.05     0.14  -0.19  -0.03
   6   1     0.11  -0.04   0.01    -0.35  -0.13   0.03     0.06   0.23   0.07
   7   1    -0.01  -0.15  -0.06     0.08   0.11  -0.39     0.33  -0.29  -0.02
   8   1     0.12  -0.04   0.02     0.30   0.06   0.21     0.05   0.23   0.08
   9   1     0.10   0.07   0.04     0.32  -0.03   0.19     0.14  -0.20  -0.02
  10   1    -0.07   0.14   0.02     0.08   0.10  -0.38     0.20   0.38   0.15
                      7                      8                      9
                        a                      a                      a 
 Frequencies --   985.8406              1004.6544              1032.3743
 Red. masses --     7.3902                 5.2836                 2.6379
 Frc consts  --     0.0000                 0.0000                 0.0000
 IR Inten    --     0.0042                 0.0053                 0.0144
 Raman Activ --     0.0000                 0.0000                 0.0000
 Depolar     --     0.0000                 0.0000                 0.0000
 Atom AN      X      Y      Z        X      Y      Z        X      Y      Z
   1   6    -0.48  -0.12  -0.13     0.07   0.10  -0.34    -0.06   0.21   0.05
   2   6     0.01   0.16   0.05    -0.05  -0.07   0.24     0.09  -0.14  -0.02
   3   6     0.50   0.02   0.10    -0.07  -0.10   0.34    -0.03   0.21   0.05
   4   6    -0.07   0.15   0.03     0.05   0.07  -0.24    -0.03  -0.15  -0.05
   5   1     0.29  -0.11   0.03    -0.04   0.38  -0.01    -0.07   0.10   0.01
   6   1    -0.22  -0.19  -0.10    -0.11   0.33   0.18     0.02   0.12   0.04
   7   1     0.14  -0.05   0.02    -0.01  -0.02   0.06     0.51  -0.37  -0.01
   8   1    -0.22  -0.19  -0.09     0.07  -0.38   0.01     0.02   0.12   0.04
   9   1     0.29  -0.11   0.02     0.08  -0.33  -0.19    -0.07   0.10   0.02
  10   1    -0.11  -0.08  -0.04     0.01   0.02  -0.07    -0.32  -0.50  -0.20
                     10                     11                     12
                        a                      a                      a 
 Frequencies --  1063.6693              1127.9210              1170.4929
 Red. masses --     2.9835                 3.2468                 9.2655
 Frc consts  --     0.0000                 0.0000                 0.0000
 IR Inten    --     1.0880                 0.0002                 3.7715
 Raman Activ --     0.0000                 0.0000                 0.0000
 Depolar     --     0.0000                 0.0000                 0.0000
 Atom AN      X      Y      Z        X      Y      Z        X      Y      Z
   1   6     0.03   0.05  -0.18    -0.06  -0.09   0.30    -0.31   0.28   0.02
   2   6    -0.04  -0.06   0.22    -0.01  -0.01   0.04     0.04  -0.42  -0.11
   3   6     0.04   0.05  -0.18     0.06   0.09  -0.30     0.18   0.36   0.14
   4   6    -0.04  -0.06   0.22     0.01   0.01  -0.04     0.14  -0.41  -0.09
   5   1     0.25  -0.35  -0.01    -0.43   0.09  -0.01     0.06   0.14   0.03
   6   1     0.10   0.38   0.17     0.36   0.23   0.09    -0.11   0.10   0.03
   7   1     0.04   0.06  -0.20     0.01   0.02  -0.08    -0.27   0.06  -0.04
   8   1    -0.12  -0.40  -0.09    -0.35  -0.21  -0.17    -0.10   0.11  -0.01
   9   1    -0.27   0.32   0.08     0.42  -0.12   0.09     0.05   0.13   0.06
  10   1     0.04   0.06  -0.20    -0.02  -0.02   0.08     0.23   0.14   0.08
                     13                     14                     15
                        a                      a                      a 
 Frequencies --  1198.3671              1208.9824              1266.9295
 Red. masses --     4.1718                 5.8969                 8.1133
 Frc consts  --     0.0000                 0.0000                 0.0000
 IR Inten    --     3.9448                 1.9966                 0.6077
 Raman Activ --     0.0000                 0.0000                 0.0000
 Depolar     --     0.0000                 0.0000                 0.0000
 Atom AN      X      Y      Z        X      Y      Z        X      Y      Z
   1   6    -0.18  -0.20  -0.09     0.29   0.31   0.15    -0.01  -0.37  -0.11
   2   6     0.20  -0.18  -0.01     0.07  -0.09  -0.01    -0.17   0.37   0.07
   3   6    -0.23   0.12  -0.01    -0.41   0.21  -0.02    -0.16   0.35   0.07
   4   6     0.12   0.22   0.09    -0.02  -0.10  -0.03    -0.01  -0.40  -0.11
   5   1     0.25  -0.19  -0.01     0.28  -0.25  -0.01     0.19  -0.08   0.01
   6   1     0.16   0.27   0.11    -0.16  -0.31  -0.13     0.15   0.13   0.06
   7   1    -0.32   0.21  -0.00     0.01  -0.02  -0.00     0.28  -0.12   0.02
   8   1     0.17   0.27   0.11    -0.16  -0.31  -0.11     0.15   0.13   0.07
   9   1     0.25  -0.19  -0.01     0.28  -0.25  -0.02     0.19  -0.08   0.02
  10   1    -0.21  -0.28  -0.12    -0.01  -0.03  -0.01     0.21   0.19   0.09
                     16                     17                     18
                        a                      a                      a 
 Frequencies --  1451.5335              1466.2444              1660.3223
 Red. masses --     1.9743                 2.3748                11.2007
 Frc consts  --     0.0000                 0.0000                 0.0000
 IR Inten    --     0.0034                 1.5287                 2.5485
 Raman Activ --     0.0000                 0.0000                 0.0000
 Depolar     --     0.0000                 0.0000                 0.0000
 Atom AN      X      Y      Z        X      Y      Z        X      Y      Z
   1   6    -0.18   0.11  -0.00    -0.20   0.13  -0.00    -0.01   0.02   0.00
   2   6    -0.00   0.00   0.00     0.06  -0.02   0.01    -0.66  -0.05  -0.14
   3   6    -0.12  -0.16  -0.07     0.14   0.18   0.08    -0.00   0.02   0.00
   4   6    -0.00  -0.00  -0.00    -0.05  -0.04  -0.02     0.64   0.15   0.17
   5   1     0.27   0.38  -0.14    -0.28  -0.34   0.14     0.00  -0.05   0.02
   6   1     0.37  -0.14  -0.26     0.38  -0.11  -0.25     0.02  -0.04  -0.04
   7   1    -0.01   0.01   0.00    -0.02   0.02   0.00    -0.01  -0.17  -0.05
   8   1     0.27  -0.29   0.26     0.28  -0.26   0.27     0.01  -0.05   0.02
   9   1     0.16   0.22   0.39    -0.18  -0.20  -0.38     0.01  -0.04  -0.04
  10   1    -0.00  -0.01  -0.00     0.01   0.02   0.01     0.08  -0.15  -0.03
                     19                     20                     21
                        a                      a                      a 
 Frequencies --  2976.2245              2995.6466              2998.8847
 Red. masses --     1.9960                 2.0099                 1.5030
 Frc consts  --     0.0000                 0.0000                 0.0000
 IR Inten    --     0.5230                76.4865                51.3438
 Raman Activ --     0.0000                 0.0000                 0.0000
 Depolar     --     0.0000                 0.0000                 0.0000
 Atom AN      X      Y      Z        X      Y      Z        X      Y      Z
   1   6     0.04   0.05  -0.18    -0.04  -0.06   0.22    -0.05   0.02   0.04
   2   6     0.00   0.00  -0.00    -0.00  -0.00   0.00     0.00   0.00   0.00
   3   6    -0.04  -0.05   0.22    -0.01  -0.01   0.20    -0.12  -0.16  -0.01
   4   6    -0.00  -0.00   0.00    -0.00   0.00   0.00    -0.00  -0.01  -0.00
   5   1    -0.10  -0.13  -0.52    -0.10  -0.13  -0.56     0.07   0.09   0.52
   6   1     0.15  -0.23   0.33    -0.18   0.27  -0.38     0.02  -0.04   0.07
   7   1     0.00   0.00  -0.00    -0.00  -0.00  -0.00     0.00   0.00  -0.00
   8   1    -0.29   0.05   0.34     0.33  -0.06  -0.38     0.17  -0.02  -0.22
   9   1     0.23   0.33  -0.27     0.13   0.18  -0.13     0.35   0.49  -0.47
  10   1    -0.00  -0.00   0.00     0.00  -0.00  -0.00    -0.01   0.01  -0.00
                     22                     23                     24
                        a                      a                      a 
 Frequencies --  3002.6601              3108.8854              3129.1402
 Red. masses --     1.4838                 1.7939                 2.0436
 Frc consts  --     0.0000                 0.0000                 0.0000
 IR Inten    --    45.7620                41.5483                69.4164
 Raman Activ --     0.0000                 0.0000                 0.0000
 Depolar     --     0.0000                 0.0000                 0.0000
 Atom AN      X      Y      Z        X      Y      Z        X      Y      Z
   1   6     0.17  -0.11   0.02    -0.01   0.00  -0.00    -0.01   0.01   0.00
   2   6     0.01  -0.01  -0.00    -0.12  -0.17  -0.07    -0.11  -0.13  -0.06
   3   6    -0.03  -0.05  -0.00    -0.00  -0.00  -0.00     0.00   0.01   0.00
   4   6    -0.00  -0.00  -0.00    -0.12   0.09   0.00     0.21  -0.13   0.00
   5   1     0.02   0.02   0.14    -0.00  -0.00   0.00    -0.00  -0.00  -0.01
   6   1    -0.21   0.36  -0.56     0.00  -0.00   0.00     0.00  -0.01   0.00
   7   1     0.01   0.01   0.00     0.42   0.61   0.25     0.30   0.43   0.18
   8   1    -0.38   0.04   0.51     0.00  -0.00  -0.01     0.01  -0.00  -0.00
   9   1     0.10   0.13  -0.13    -0.00   0.00  -0.00    -0.00  -0.01   0.00
  10   1    -0.01   0.00  -0.00     0.46  -0.32  -0.00    -0.64   0.44   0.00
