      -----------------------------------------------------------      
     |                   =====================                   |     
     |                           x T B                           |     
     |                   =====================                   |     
     |                         S. Grimme                         |     
     |          Mulliken Center for Theoretical Chemistry        |     
     |                    University of Bonn                     |     
      -----------------------------------------------------------      

   * xtb version 6.7.1 (unknown) compiled by 'runner@Mac-1732184002186.local' on 2024-11-21

   xtb is free software: you can redistribute it and/or modify it under
   the terms of the GNU Lesser General Public License as published by
   the Free Software Foundation, either version 3 of the License, or
   (at your option) any later version.
   
   xtb is distributed in the hope that it will be useful,
   but WITHOUT ANY WARRANTY; without even the implied warranty of
   MERCHANTABILITY or FITNESS FOR A PARTICULAR PURPOSE.  See the
   GNU Lesser General Public License for more details.
   
   Cite this work as:
   * C. Bannwarth, E. Caldeweyher, S. Ehlert, A. Hansen, P. Pracht,
     J. Seibert, S. Spicher, S. Grimme, WIREs Comput. Mol. Sci., 2020, 11,
     e01493. DOI: 10.1002/wcms.1493
   
   for GFN2-xTB:
   * C. Bannwarth, S. Ehlert and S. Grimme., J. Chem. Theory Comput., 2019,
     15, 1652-1671. DOI: 10.1021/acs.jctc.8b01176
   for GFN1-xTB:
   * S. Grimme, C. Bannwarth, P. Shushkov, J. Chem. Theory Comput., 2017,
     13, 1989-2009. DOI: 10.1021/acs.jctc.7b00118
   for GFN0-xTB:
   * P. Pracht, E. Caldeweyher, S. Ehlert, S. Grimme, ChemRxiv, 2019, preprint.
     DOI: 10.26434/chemrxiv.8326202.v1
   for GFN-FF:
   * S. Spicher and S. Grimme, Angew. Chem. Int. Ed., 2020, 59, 15665-15673.
     DOI: 10.1002/anie.202004239
   
   for ALPB and GBSA implicit solvation:
   * S. Ehlert, M. Stahn, S. Spicher, S. Grimme, J. Chem. Theory Comput.,
     2021, 17, 4250-4261. DOI: 10.1021/acs.jctc.1c00471
   
   for ddCOSMO and CPCM-X implicit solvation:
   * M. Stahn, S. Ehlert, S. Grimme, J. Phys. Chem. A,
     2023, XX, XXXX-XXXX. DOI: 10.1021/acs.jpca.3c04382
   
   for DFT-D4:
   * E. Caldeweyher, C. Bannwarth and S. Grimme, J. Chem. Phys., 2017,
     147, 034112. DOI: 10.1063/1.4993215
   * E. Caldeweyher, S. Ehlert, A. Hansen, H. Neugebauer, S. Spicher,
     C. Bannwarth and S. Grimme, J. Chem. Phys., 2019, 150, 154122.
     DOI: 10.1063/1.5090222
   * E. Caldeweyher, J.-M. Mewes, S. Ehlert and S. Grimme, Phys. Chem. Chem. Phys.
     2020, 22, 8499-8512. DOI: 10.1039/D0CP00502A
   
   for sTDA-xTB:
   * S. Grimme and C. Bannwarth, J. Chem. Phys., 2016, 145, 054103.
     DOI: 10.1063/1.4959605
   
   in the mass-spec context:
   * V. Asgeirsson, C. Bauer and S. Grimme, Chem. Sci., 2017, 8, 4879.
     DOI: 10.1039/c7sc00601b
   * J. Koopman and S. Grimme, ACS Omega 2019, 4, 12, 15120-15133.
     DOI: 10.1021/acsomega.9b02011
   
   for metadynamics refer to:
   * S. Grimme, J. Chem. Theory Comput., 2019, 155, 2847-2862
     DOI: 10.1021/acs.jctc.9b00143
   
   for SPH calculations refer to:
   * S. Spicher and S. Grimme, J. Chem. Theory Comput., 2021, 17, 1701-1714
     DOI: 10.1021/acs.jctc.0c01306
   
   for ONIOM refer to:
   * C. Plett, A. Katbashev, S. Ehlert, S. Grimme, M. Bursch,
     Phys. Chem. Chem. Phys., 2023, 25, 17860-17868. DOI: 10.1039/D3CP02178E
   
   for DIPRO refer to:
   * J. Kohn, N. Gildemeister, S. Grimme, D. Fazzi, A. Hansen,
     J. Chem. Phys., 2023, just accepted.
   
   for PTB refer to:
   * S. Grimme, M. Mueller, A. Hansen, J. Chem. Phys., 2023, 158, 124111.
     DOI: 10.1063/5.0137838
   
   with help from (in alphabetical order)
   P. Atkinson, C. Bannwarth, F. Bohle, G. Brandenburg, E. Caldeweyher
   M. Checinski, S. Dohm, S. Ehlert, S. Ehrlich, I. Gerasimov, C. Hölzer
   A. Katbashev, J. Kohn, J. Koopman, C. Lavigne, S. Lehtola, F. März, M. Müller,
   F. Musil, H. Neugebauer, J. Pisarek, C. Plett, P. Pracht, F. Pultar,
   J. Seibert, P. Shushkov, S. Spicher, M. Stahn, M. Steiner, T. Strunk,
   J. Stückrath, T. Rose, and J. Unsleber
   
 * started run on 2026/09/04 at 18:33:05.437     
   ID    Z sym.   atoms
    1    6 C      1-4
    2    1 H      5-10

           -------------------------------------------------
          |                Calculation Setup                |
           -------------------------------------------------

          program call               : /opt/homebrew/bin/xtb temp_frame_opt.xyz --chrg 0 --uhf 0 --gfn 2 --acc 1.0 --etemp 300.0 --parallel 1 --ohess normal --input control.txt
          coordinate file            : temp_frame_opt.xyz
          omp threads                :                     1


molecular fragmentation (1/2 indicates fragments):
1111111212
# atoms in fragment 1/2:     8     2
 fragment masses (1/2) :       52.07        2.02
CMA distance (Bohr)    :   0.236
constraining FC (au)   :  0.0500

           -------------------------------------------------
          |                 G F N 2 - x T B                 |
           -------------------------------------------------

        Reference                      10.1021/acs.jctc.8b01176
      * Hamiltonian:
        H0-scaling (s, p, d)           1.850000    2.230000    2.230000
        zeta-weighting                 0.500000
      * Dispersion:
        s8                             2.700000
        a1                             0.520000
        a2                             5.000000
        s9                             5.000000
      * Repulsion:
        kExp                           1.500000    1.000000
        rExp                           1.000000
      * Coulomb:
        alpha                          2.000000
        third order                    shell-resolved
        anisotropic                    true
        a3                             3.000000
        a5                             4.000000
        cn-shift                       1.200000
        cn-exp                         4.000000
        max-rad                        5.000000

q/qsh data taken from xtbrestart
CAMM data taken from xtbrestart

          ...................................................
          :                      SETUP                      :
          :.................................................:
          :  # basis functions                  22          :
          :  # atomic orbitals                  22          :
          :  # shells                           14          :
          :  # electrons                        22          :
          :  max. iterations                   250          :
          :  Hamiltonian                  GFN2-xTB          :
          :  restarted?                       true          :
          :  GBSA solvation                  false          :
          :  PC potential                    false          :
          :  electronic temp.          300.0000000     K    :
          :  accuracy                    1.0000000          :
          :  -> integral cutoff          0.2500000E+02      :
          :  -> integral neglect         0.1000000E-07      :
          :  -> SCF convergence          0.1000000E-05 Eh   :
          :  -> wf. convergence          0.1000000E-03 e    :
          :  Broyden damping             0.4000000          :
          :  net charge                          0          :
          :  unpaired electrons                  0          :
          ...................................................

 iter      E             dE          RMSdq      gap      omega  full diag
   1    -11.5220253 -0.115220E+02  0.302E+00    3.47       0.0  T
   2    -11.5186241  0.340114E-02  0.195E+00    3.43       1.0  T
   3    -11.5034834  0.151407E-01  0.185E+00    3.53       1.0  T
   4    -11.5271610 -0.236776E-01  0.134E-01    3.42       1.0  T
   5    -11.5272934 -0.132409E-03  0.522E-02    3.42       1.0  T
   6    -11.5272992 -0.575965E-05  0.188E-02    3.42       1.7  T
   7    -11.5272997 -0.497835E-06  0.779E-03    3.42       4.1  T
   8    -11.5273000 -0.344917E-06  0.321E-03    3.42       9.9  T
   9    -11.5273001 -0.154177E-07  0.342E-04    3.42      92.3  T
  10    -11.5273001 -0.129194E-09  0.161E-04    3.42     196.1  T

   *** convergence criteria satisfied after 10 iterations ***

         #    Occupation            Energy/Eh            Energy/eV
      -------------------------------------------------------------
         1        2.0000           -0.6246761             -16.9983
       ...           ...                  ...                  ...
         5        2.0000           -0.5082086             -13.8291
         6        2.0000           -0.4951621             -13.4740
         7        2.0000           -0.4569995             -12.4356
         8        2.0000           -0.4415901             -12.0163
         9        2.0000           -0.4218848             -11.4801
        10        2.0000           -0.4075554             -11.0901
        11        2.0000           -0.3501942              -9.5293 (HOMO)
        12                         -0.2244243              -6.1069 (LUMO)
        13                         -0.1369869              -3.7276
        14                         -0.0571967              -1.5564
        15                         -0.0334250              -0.9095
        16                          0.0004903               0.0133
       ...                                ...                  ...
        22                          0.5500232              14.9669
      -------------------------------------------------------------
                  HL-Gap            0.1257699 Eh            3.4224 eV
             Fermi-level           -0.2873092 Eh           -7.8181 eV

 SCC (total)                   0 d,  0 h,  0 min,  0.002 sec
 SCC setup                      ...        0 min,  0.000 sec (  2.133%)
 Dispersion                     ...        0 min,  0.000 sec (  1.252%)
 classical contributions        ...        0 min,  0.000 sec (  0.448%)
 integral evaluation            ...        0 min,  0.000 sec ( 12.007%)
 iterations                     ...        0 min,  0.001 sec ( 49.699%)
 molecular gradient             ...        0 min,  0.000 sec ( 32.406%)
 printout                       ...        0 min,  0.000 sec (  1.824%)

         :::::::::::::::::::::::::::::::::::::::::::::::::::::
         ::                     SUMMARY                     ::
         :::::::::::::::::::::::::::::::::::::::::::::::::::::
         :: total energy             -11.390086599848 Eh    ::
         :: gradient norm              0.266654944394 Eh/a0 ::
         :: HOMO-LUMO gap              3.422374467228 eV    ::
         ::.................................................::
         :: SCC energy               -11.527298188974 Eh    ::
         :: -> isotropic ES            0.002430544132 Eh    ::
         :: -> anisotropic ES          0.001834243787 Eh    ::
         :: -> anisotropic XC          0.014842776416 Eh    ::
         :: -> dispersion             -0.004321428127 Eh    ::
         :: repulsion energy           0.137211589126 Eh    ::
         :: add. restraining           0.000000000000 Eh    ::
         :: total charge               0.000000000000 e     ::
         :::::::::::::::::::::::::::::::::::::::::::::::::::::

      ----------------------------------------------------------- 
     |                       L-ANC optimizer                     |
      ----------------------------------------------------------- 
          low memory version by Sebastian Ehlert

          ...................................................
          :                      SETUP                      :
          :.................................................:
          :   energy convergence        0.5000000E-05 Eh    :
          :   grad. convergence         0.1000000E-02 Eh/a0 :
          :   optimization log               true           :
          :   writing optlog all                1     steps :
          :   Hessian reset                    25     steps :
          :   maximium step len.        1.0000000     a0    :
          :   LBFGS images                     25           :
          ...................................................
 * calculating model hessian...
Using Lindh-Hessian (1995)
 Shifting diagonal of input Hessian by    1.0000000000000000E-002
 Lowest  eigenvalues of input Hessian
    0.000000    0.000000    0.000000    0.000000    0.000000    0.000000
    0.016631    0.026383    0.028534    0.030342    0.040908    0.046708
    0.056192    0.063631    0.069745    0.086853    0.093114    0.140287
 Highest eigenvalues
    0.669005    0.709582    0.957044    1.128750    1.403130    1.614531


........................................................................
.............................. CYCLE    1 ..............................
........................................................................

 iter      E             dE          RMSdq      gap      omega  full diag
   1    -11.6509755 -0.116510E+02  0.115E+00    4.39       0.0  T
   2    -11.6503008  0.674710E-03  0.788E-01    4.39       1.0  T
   3    -11.6507953 -0.494468E-03  0.622E-01    4.39       1.0  T
   4    -11.6525566 -0.176126E-02  0.462E-02    4.39       1.0  T
   5    -11.6525678 -0.111943E-04  0.198E-02    4.39       1.6  T
   6    -11.6525686 -0.876337E-06  0.566E-03    4.39       5.6  T
   7    -11.6525687 -0.299609E-07  0.169E-03    4.39      18.7  T
   8    -11.6525687 -0.127152E-08  0.328E-04    4.39      96.3  T
   9    -11.6525687 -0.523407E-09  0.109E-04    4.39     290.8  T
     SCC iter.                  ...        0 min,  0.001 sec
     gradient                   ...        0 min,  0.000 sec
 * total energy  :   -11.4976855 Eh     change       -0.1075989E+00 Eh
   gradient norm :     0.1552146 Eh/a0  converged?    E=F G=F D=F
   step length   :     0.5776067 a0

........................................................................
.............................. CYCLE    2 ..............................
........................................................................

 iter      E             dE          RMSdq      gap      omega  full diag
   1    -11.7349225 -0.117349E+02  0.161E+00    4.98       0.0  T
   2    -11.7351587 -0.236133E-03  0.976E-01    4.98       1.0  T
   3    -11.7336986  0.146009E-02  0.445E-01    4.98       1.0  T
   4    -11.7352968 -0.159819E-02  0.754E-02    4.98       1.0  T
   5    -11.7353364 -0.396747E-04  0.186E-02    4.98       1.7  T
   6    -11.7353367 -0.237016E-06  0.715E-03    4.98       4.4  T
   7    -11.7353368 -0.968207E-07  0.242E-03    4.98      13.1  T
   8    -11.7353368 -0.862796E-08  0.851E-04    4.98      37.2  T
   9    -11.7353368 -0.120167E-08  0.100E-04    4.98     316.3  T
     SCC iter.                  ...        0 min,  0.001 sec
     gradient                   ...        0 min,  0.000 sec
 * total energy  :   -11.5445307 Eh     change       -0.4684520E-01 Eh
   gradient norm :     0.0914792 Eh/a0  converged?    E=F G=F D=F
   step length   :     1.4350766 a0

........................................................................
.............................. CYCLE    3 ..............................
........................................................................

 iter      E             dE          RMSdq      gap      omega  full diag
   1    -11.7355289 -0.117355E+02  0.681E-01    5.13       0.0  T
   2    -11.7357132 -0.184309E-03  0.396E-01    5.12       1.0  T
   3    -11.7356221  0.911177E-04  0.155E-01    5.13       1.0  T
   4    -11.7357227 -0.100590E-03  0.574E-02    5.13       1.0  T
   5    -11.7357506 -0.278452E-04  0.859E-03    5.13       3.7  T
   6    -11.7357506 -0.502683E-07  0.193E-03    5.13      16.4  T
   7    -11.7357506 -0.361021E-08  0.507E-04    5.13      62.4  T
   8    -11.7357506 -0.336923E-09  0.244E-04    5.13     129.7  T
     SCC iter.                  ...        0 min,  0.001 sec
     gradient                   ...        0 min,  0.000 sec
 * total energy  :   -11.5536792 Eh     change       -0.9148492E-02 Eh
   gradient norm :     0.0422542 Eh/a0  converged?    E=F G=F D=F
   step length   :     0.4664774 a0

........................................................................
.............................. CYCLE    4 ..............................
........................................................................

 iter      E             dE          RMSdq      gap      omega  full diag
   1    -11.7599459 -0.117599E+02  0.374E-01    5.13       0.0  T
   2    -11.7599980 -0.521673E-04  0.215E-01    5.12       1.0  T
   3    -11.7599789  0.191265E-04  0.741E-02    5.13       1.0  T
   4    -11.7599994 -0.204541E-04  0.254E-02    5.13       1.2  T
   5    -11.7600050 -0.563605E-05  0.948E-03    5.13       3.3  T
   6    -11.7600052 -0.248867E-06  0.340E-03    5.13       9.3  T
   7    -11.7600053 -0.142869E-07  0.535E-04    5.13      59.2  T
   8    -11.7600053 -0.623638E-09  0.225E-04    5.13     140.8  T
     SCC iter.                  ...        0 min,  0.001 sec
     gradient                   ...        0 min,  0.000 sec
 * total energy  :   -11.5552837 Eh     change       -0.1604498E-02 Eh
   gradient norm :     0.0322594 Eh/a0  converged?    E=F G=F D=F
   step length   :     0.2131804 a0

........................................................................
.............................. CYCLE    5 ..............................
........................................................................

 iter      E             dE          RMSdq      gap      omega  full diag
   1    -11.7565630 -0.117566E+02  0.341E-01    5.15       0.0  T
   2    -11.7565679 -0.484387E-05  0.199E-01    5.15       1.0  T
   3    -11.7564477  0.120141E-03  0.143E-01    5.15       1.0  T
   4    -11.7565894 -0.141728E-03  0.862E-03    5.15       3.7  T
   5    -11.7565896 -0.191582E-06  0.491E-03    5.15       6.4  T
   6    -11.7565897 -0.224078E-07  0.586E-04    5.15      54.0  T
   7    -11.7565897 -0.222116E-09  0.198E-04    5.15     159.9  T
     SCC iter.                  ...        0 min,  0.000 sec
     gradient                   ...        0 min,  0.000 sec
 * total energy  :   -11.5569971 Eh     change       -0.1713371E-02 Eh
   gradient norm :     0.0211079 Eh/a0  converged?    E=F G=F D=F
   step length   :     0.2889270 a0

........................................................................
.............................. CYCLE    6 ..............................
........................................................................

 iter      E             dE          RMSdq      gap      omega  full diag
   1    -11.7541930 -0.117542E+02  0.181E-01    5.14       0.0  T
   2    -11.7541975 -0.449743E-05  0.104E-01    5.14       1.0  T
   3    -11.7541827  0.148088E-04  0.487E-02    5.14       1.0  T
   4    -11.7541996 -0.169487E-04  0.690E-03    5.14       4.6  T
   5    -11.7541999 -0.231839E-06  0.296E-03    5.14      10.7  T
   6    -11.7541999 -0.948053E-08  0.642E-04    5.14      49.3  T
   7    -11.7541999 -0.267008E-09  0.175E-04    5.14     180.8  T
     SCC iter.                  ...        0 min,  0.000 sec
     gradient                   ...        0 min,  0.000 sec
 * total energy  :   -11.5572667 Eh     change       -0.2696601E-03 Eh
   gradient norm :     0.0189999 Eh/a0  converged?    E=F G=F D=F
   step length   :     0.1386302 a0

........................................................................
.............................. CYCLE    7 ..............................
........................................................................

 iter      E             dE          RMSdq      gap      omega  full diag
   1    -11.7567198 -0.117567E+02  0.810E-02    5.15       0.0  T
   2    -11.7567212 -0.138610E-05  0.481E-02    5.15       1.0  T
   3    -11.7567155  0.569848E-05  0.307E-02    5.15       1.0  T
   4    -11.7567223 -0.682114E-05  0.404E-03    5.15       7.8  T
   5    -11.7567224 -0.628894E-07  0.138E-03    5.15      23.0  T
   6    -11.7567224 -0.157491E-08  0.447E-04    5.15      70.8  T
   7    -11.7567224 -0.110180E-09  0.106E-04    5.15     299.7  T
     SCC iter.                  ...        0 min,  0.000 sec
     gradient                   ...        0 min,  0.001 sec
 * total energy  :   -11.5575670 Eh     change       -0.3002359E-03 Eh
   gradient norm :     0.0061556 Eh/a0  converged?    E=F G=F D=F
   step length   :     0.0641612 a0

........................................................................
.............................. CYCLE    8 ..............................
........................................................................

 iter      E             dE          RMSdq      gap      omega  full diag
   1    -11.7568975 -0.117569E+02  0.129E-01    5.14       0.0  T
   2    -11.7568983 -0.790317E-06  0.755E-02    5.14       1.0  T
   3    -11.7568963  0.198574E-05  0.169E-02    5.14       1.9  T
   4    -11.7568985 -0.220083E-05  0.342E-03    5.14       9.2  T
   5    -11.7568986 -0.854487E-07  0.909E-04    5.14      34.8  T
   6    -11.7568986 -0.113215E-08  0.325E-04    5.14      97.3  T
     SCC iter.                  ...        0 min,  0.001 sec
     gradient                   ...        0 min,  0.000 sec
 * total energy  :   -11.5577303 Eh     change       -0.1633778E-03 Eh
   gradient norm :     0.0092365 Eh/a0  converged?    E=F G=F D=F
   step length   :     0.1203182 a0

........................................................................
.............................. CYCLE    9 ..............................
........................................................................

 iter      E             dE          RMSdq      gap      omega  full diag
   1    -11.7572747 -0.117573E+02  0.139E-01    5.17       0.0  T
   2    -11.7572754 -0.763390E-06  0.820E-02    5.16       1.0  T
   3    -11.7572739  0.149643E-05  0.144E-02    5.16       2.2  T
   4    -11.7572757 -0.175242E-05  0.295E-03    5.16      10.7  T
   5    -11.7572757 -0.434975E-07  0.953E-04    5.16      33.2  T
   6    -11.7572757 -0.764482E-09  0.338E-04    5.16      93.6  T
     SCC iter.                  ...        0 min,  0.000 sec
     gradient                   ...        0 min,  0.001 sec
 * total energy  :   -11.5578849 Eh     change       -0.1545584E-03 Eh
   gradient norm :     0.0066089 Eh/a0  converged?    E=F G=F D=F
   step length   :     0.1563805 a0

........................................................................
.............................. CYCLE   10 ..............................
........................................................................

 iter      E             dE          RMSdq      gap      omega  full diag
   1    -11.7571303 -0.117571E+02  0.886E-02    5.16       0.0  T
   2    -11.7571312 -0.922965E-06  0.514E-02    5.16       1.0  T
   3    -11.7571304  0.822980E-06  0.132E-02    5.16       2.4  T
   4    -11.7571314 -0.969394E-06  0.409E-03    5.16       7.7  T
   5    -11.7571315 -0.111704E-06  0.152E-03    5.16      20.9  T
   6    -11.7571315 -0.373389E-08  0.214E-04    5.16     147.6  T
   7    -11.7571315 -0.389324E-10  0.103E-04    5.16     306.7  T
     SCC iter.                  ...        0 min,  0.000 sec
     gradient                   ...        0 min,  0.000 sec
 * total energy  :   -11.5579411 Eh     change       -0.5619928E-04 Eh
   gradient norm :     0.0044513 Eh/a0  converged?    E=F G=F D=F
   step length   :     0.0833807 a0

........................................................................
.............................. CYCLE   11 ..............................
........................................................................

 iter      E             dE          RMSdq      gap      omega  full diag
   1    -11.7567746 -0.117568E+02  0.375E-02    5.16       0.0  T
   2    -11.7567751 -0.462808E-06  0.229E-02    5.16       1.4  T
   3    -11.7567739  0.116627E-05  0.147E-02    5.16       2.2  T
   4    -11.7567754 -0.149532E-05  0.285E-03    5.16      11.1  T
   5    -11.7567754 -0.484522E-07  0.620E-04    5.16      51.0  T
   6    -11.7567754 -0.133555E-09  0.174E-04    5.16     181.5  T
     SCC iter.                  ...        0 min,  0.000 sec
     gradient                   ...        0 min,  0.000 sec
 * total energy  :   -11.5579586 Eh     change       -0.1753266E-04 Eh
   gradient norm :     0.0030708 Eh/a0  converged?    E=F G=F D=F
   step length   :     0.0270145 a0

........................................................................
.............................. CYCLE   12 ..............................
........................................................................

 iter      E             dE          RMSdq      gap      omega  full diag
   1    -11.7572600 -0.117573E+02  0.173E-02    5.17       0.0  T
   2    -11.7572601 -0.732108E-07  0.103E-02    5.17       3.1  T
   3    -11.7572598  0.263751E-06  0.686E-03    5.17       4.6  T
   4    -11.7572601 -0.321750E-06  0.815E-04    5.17      38.8  T
   5    -11.7572601 -0.437501E-08  0.247E-04    5.17     128.2  T
     SCC iter.                  ...        0 min,  0.000 sec
     gradient                   ...        0 min,  0.000 sec
 * total energy  :   -11.5579647 Eh     change       -0.6032405E-05 Eh
   gradient norm :     0.0013614 Eh/a0  converged?    E=F G=F D=F
   step length   :     0.0141349 a0

........................................................................
.............................. CYCLE   13 ..............................
........................................................................

 iter      E             dE          RMSdq      gap      omega  full diag
   1    -11.7574481 -0.117574E+02  0.166E-02    5.17       0.0  T
   2    -11.7574481 -0.344911E-07  0.992E-03    5.17       3.2  T
   3    -11.7574480  0.152679E-06  0.452E-03    5.17       7.0  T
   4    -11.7574481 -0.169775E-06  0.768E-04    5.17      41.2  T
   5    -11.7574481 -0.380250E-08  0.194E-04    5.17     162.9  T
     SCC iter.                  ...        0 min,  0.000 sec
     gradient                   ...        0 min,  0.000 sec
 * total energy  :   -11.5579664 Eh     change       -0.1731226E-05 Eh
   gradient norm :     0.0011956 Eh/a0  converged?    E=T G=F D=F
   step length   :     0.0124177 a0

........................................................................
.............................. CYCLE   14 ..............................
........................................................................

 iter      E             dE          RMSdq      gap      omega  full diag
   1    -11.7570816 -0.117571E+02  0.130E-02    5.17       0.0  T
   2    -11.7570817 -0.258508E-07  0.778E-03    5.17       4.1  T
   3    -11.7570815  0.124838E-06  0.423E-03    5.17       7.5  T
   4    -11.7570817 -0.141822E-06  0.577E-04    5.17      54.8  T
   5    -11.7570817 -0.208902E-08  0.153E-04    5.17     207.1  T
     SCC iter.                  ...        0 min,  0.000 sec
     gradient                   ...        0 min,  0.000 sec
 * total energy  :   -11.5579689 Eh     change       -0.2465619E-05 Eh
   gradient norm :     0.0006661 Eh/a0  converged?    E=T G=T D=F
   step length   :     0.0111857 a0

   *** GEOMETRY OPTIMIZATION CONVERGED AFTER 14 CYCLES ***

------------------------------------------------------------------------
 total energy gain   :        -0.1678823 Eh     -105.3477 kcal/mol
 total RMSD          :         0.6347134 a0        0.3359 Å
 total power (kW/mol):       -31.4839166 (step)********** (real)
------------------------------------------------------------------------

 L-ANCopt (total)              0 d,  0 h,  0 min,  0.018 sec
 setup                          ...        0 min,  0.000 sec (  0.605%)
 model hessian                  ...        0 min,  0.000 sec (  2.312%)
 ANC generation                 ...        0 min,  0.000 sec (  0.476%)
 coordinate transformation      ...        0 min,  0.000 sec (  0.129%)
 Rational function              ...        0 min,  0.000 sec (  0.113%)
 singlepoint calculation        ...        0 min,  0.016 sec ( 93.311%)
 optimization log               ...        0 min,  0.000 sec (  1.768%)
 hessian update                 ...        0 min,  0.000 sec (  0.167%)

================
 final structure:
================
10
 xtb: 6.7.1 (unknown)
C           -1.02286097940961        0.54432121518040       -0.08578430709723
C           -0.61566951995992       -0.86696431263624       -0.40672400633493
C            0.46947556775099        0.77250832983515        0.26829971896340
C            0.66297987897167       -0.67192207868995       -0.10196419738571
H            0.66111447414681        1.01495435800109        1.31299191179753
H           -1.38968451946781        1.12725781317226       -0.92924982884384
H           -1.18832696062500       -1.70761036661667       -0.75558479068317
H           -1.71321109099232        0.65121285013812        0.74964914456424
H            0.98746606755299        1.48953057269905       -0.36723413669375
H            1.54166109734261       -1.29067139418501       -0.10420525380738

 Bond Distances (Angstroems)
 ---------------------------
C1-C2=1.5035         C1-C3=1.5506         C1-H6=1.0889         C1-H8=1.0890         C2-C1=1.5035         C2-C4=1.3289         
C2-H7=1.0753         C3-C1=1.5506         C3-C4=1.5036         C3-H5=1.0894         C3-H9=1.0892         C4-C2=1.3289         
C4-C3=1.5036         C4-H10=1.0747        H5-C3=1.0894         H6-C1=1.0889         H7-C2=1.0753         H8-C1=1.0890         
H9-C3=1.0892         H10-C4=1.0747        
 C  H  Rav=1.0844 sigma=0.0067  Rmin=1.0747  Rmax=1.0894     6
 C  C  Rav=1.4717 sigma=0.0847  Rmin=1.3289  Rmax=1.5506     4

 selected bond angles (degree)
 --------------------
C3-C1-C2= 85.77                H6-C1-C2=115.36                H6-C1-C3=114.98                H8-C1-C2=115.31                
H8-C1-C3=114.86                H8-C1-H6=109.15                C4-C2-C1= 94.24                H7-C2-C1=131.21                
H7-C2-C4=134.55                C4-C3-C1= 85.77                H5-C3-C1=114.90                H5-C3-C4=115.29                
H9-C3-C1=114.92                H9-C3-C4=115.31                H9-C3-H5=109.23                C3-C4-C2= 94.22                
H10-C4-C2=134.57               H10-C4-C3=131.21               

 selected dihedral angles (degree)
 ---------------------------------
C4-C2-C1-C3=  0.06            C4-C2-C1-H6=115.75            C4-C2-C1-H8=244.50            H7-C2-C1-C3=179.97            
H7-C2-C1-H6=295.67            H7-C2-C1-H8= 64.42            C4-C3-C1-C2=359.95            C4-C3-C1-H6=243.88            
C4-C3-C1-H8=115.94            H5-C3-C1-C2=243.97            H5-C3-C1-H6=127.90            H5-C3-C1-H8=359.96            
H9-C3-C1-C2=115.94            H9-C3-C1-H6=359.88            H9-C3-C1-H8=231.94            C3-C4-C2-C1=359.94            
C3-C4-C2-H7=180.03            H10-C4-C2-C1=179.87           H10-C4-C2-H7=359.96           C2-C4-C3-C1=  0.06            
C2-C4-C3-H5=115.65            C2-C4-C3-H9=244.44            H10-C4-C3-C1=180.13           H10-C4-C3-H5=295.72           
H10-C4-C3-H9= 64.51           

 CMA Distance (Angstroems)
 ---------------------------
R(CMA):  0.5156
           -------------------------------------------------
          |                Final Singlepoint                |
           -------------------------------------------------

          ...................................................
          :                      SETUP                      :
          :.................................................:
          :  # basis functions                  22          :
          :  # atomic orbitals                  22          :
          :  # shells                           14          :
          :  # electrons                        22          :
          :  max. iterations                   250          :
          :  Hamiltonian                  GFN2-xTB          :
          :  restarted?                      false          :
          :  GBSA solvation                  false          :
          :  PC potential                    false          :
          :  electronic temp.          300.0000000     K    :
          :  accuracy                    1.0000000          :
          :  -> integral cutoff          0.2500000E+02      :
          :  -> integral neglect         0.1000000E-07      :
          :  -> SCF convergence          0.1000000E-05 Eh   :
          :  -> wf. convergence          0.1000000E-03 e    :
          :  Broyden damping             0.4000000          :
          :  net charge                          0          :
          :  unpaired electrons                  0          :
          ...................................................

 iter      E             dE          RMSdq      gap      omega  full diag
   1    -11.7570817 -0.117571E+02  0.467E-05    5.17       0.0  T
   2    -11.7570817 -0.133049E-11  0.267E-05    5.17    1186.3  T
   3    -11.7570817  0.847322E-12  0.167E-05    5.17    1897.2  T

   *** convergence criteria satisfied after 3 iterations ***

         #    Occupation            Energy/Eh            Energy/eV
      -------------------------------------------------------------
         1        2.0000           -0.6437973             -17.5186
       ...           ...                  ...                  ...
         5        2.0000           -0.5153167             -14.0225
         6        2.0000           -0.5136539             -13.9772
         7        2.0000           -0.4721688             -12.8484
         8        2.0000           -0.4503370             -12.2543
         9        2.0000           -0.4285305             -11.6609
        10        2.0000           -0.4174970             -11.3607
        11        2.0000           -0.3907002             -10.6315 (HOMO)
        12                         -0.2008335              -5.4650 (LUMO)
        13                          0.0447763               1.2184
        14                          0.0669055               1.8206
        15                          0.1100481               2.9946
        16                          0.1634433               4.4475
       ...                                ...                  ...
        22                          0.7651057              20.8196
      -------------------------------------------------------------
                  HL-Gap            0.1898667 Eh            5.1665 eV
             Fermi-level           -0.2957668 Eh           -8.0482 eV

 SCC (total)                   0 d,  0 h,  0 min,  0.001 sec
 SCC setup                      ...        0 min,  0.000 sec (  2.115%)
 Dispersion                     ...        0 min,  0.000 sec (  0.992%)
 classical contributions        ...        0 min,  0.000 sec (  0.444%)
 integral evaluation            ...        0 min,  0.000 sec ( 19.295%)
 iterations                     ...        0 min,  0.000 sec ( 21.332%)
 molecular gradient             ...        0 min,  0.000 sec ( 51.802%)
 printout                       ...        0 min,  0.000 sec (  3.525%)

         :::::::::::::::::::::::::::::::::::::::::::::::::::::
         ::                     SUMMARY                     ::
         :::::::::::::::::::::::::::::::::::::::::::::::::::::
         :: total energy             -11.557968867263 Eh    ::
         :: gradient norm              0.000667914961 Eh/a0 ::
         :: HOMO-LUMO gap              5.166535640795 eV    ::
         ::.................................................::
         :: SCC energy               -11.757080241097 Eh    ::
         :: -> isotropic ES            0.001423423036 Eh    ::
         :: -> anisotropic ES          0.002522998408 Eh    ::
         :: -> anisotropic XC          0.009165414652 Eh    ::
         :: -> dispersion             -0.004421960166 Eh    ::
         :: repulsion energy           0.199111373834 Eh    ::
         :: add. restraining           0.000000000000 Eh    ::
         :: total charge               0.000000000000 e     ::
         :::::::::::::::::::::::::::::::::::::::::::::::::::::

           ------------------------------------------------- 
          |                Numerical Hessian                |
           ------------------------------------------------- 
step length          :   0.00500
SCC accuracy         :   0.30000
Hessian scale factor :   1.00000
frozen atoms in %    :   0.00000    0
RMS gradient         :   0.00067
estimated CPU  time      0.00 min
estimated wall time      0.00 min

writing file <hessian>.

 projected vibrational frequencies (cm⁻¹)
eigval :       -0.00    -0.00     0.00     0.00     0.00     0.00
eigval :      319.07   696.25   819.98   864.51   868.06   964.03
eigval :      985.84  1004.65  1032.37  1063.67  1127.92  1170.49
eigval :     1198.37  1208.98  1266.93  1451.53  1466.24  1660.32
eigval :     2976.22  2995.65  2998.88  3002.66  3108.89  3129.14
           -------------------------------------------------
          |                Property Printout                |
           -------------------------------------------------

    * Orbital Energies and Occupations

         #    Occupation            Energy/Eh            Energy/eV
      -------------------------------------------------------------
         1        2.0000           -0.6437973             -17.5186
         2        2.0000           -0.5837749             -15.8853
         3        2.0000           -0.5795841             -15.7713
         4        2.0000           -0.5279524             -14.3663
         5        2.0000           -0.5153167             -14.0225
         6        2.0000           -0.5136539             -13.9772
         7        2.0000           -0.4721688             -12.8484
         8        2.0000           -0.4503370             -12.2543
         9        2.0000           -0.4285305             -11.6609
        10        2.0000           -0.4174970             -11.3607
        11        2.0000           -0.3907002             -10.6315 (HOMO)
        12                         -0.2008335              -5.4650 (LUMO)
        13                          0.0447763               1.2184
        14                          0.0669055               1.8206
        15                          0.1100481               2.9946
        16                          0.1634433               4.4475
        17                          0.1715906               4.6692
        18                          0.2301621               6.2630
        19                          0.2517299               6.8499
        20                          0.2884820               7.8500
        21                          0.3140493               8.5457
        22                          0.7651057              20.8196
      -------------------------------------------------------------
                  HL-Gap            0.1898667 Eh            5.1665 eV
             Fermi-level           -0.2957668 Eh           -8.0482 eV

     #   Z          covCN         q      C6AA      α(0)
     1   6 C        4.130    -0.058    21.530     6.590
     2   6 C        3.215    -0.039    28.250     8.647
     3   6 C        4.130    -0.058    21.530     6.590
     4   6 C        3.215    -0.039    28.254     8.648
     5   1 H        0.925     0.037     2.494     2.470
     6   1 H        0.925     0.037     2.493     2.469
     7   1 H        0.926     0.023     2.685     2.562
     8   1 H        0.925     0.037     2.493     2.469
     9   1 H        0.925     0.037     2.492     2.469
    10   1 H        0.926     0.023     2.683     2.562

 Mol. C6AA /au·bohr⁶  :        868.042694
 Mol. C8AA /au·bohr⁸  :      19665.714580
 Mol. α(0) /au        :         45.476456


Wiberg/Mayer (AO) data.
largest (>0.10) Wiberg bond orders for each atom

 ---------------------------------------------------------------------------
     #   Z sym  total        # sym  WBO       # sym  WBO       # sym  WBO
 ---------------------------------------------------------------------------
     1   6 C    3.991 --     2 C    1.025     3 C    0.996     6 H    0.969
                             8 H    0.969
     2   6 C    3.981 --     4 C    1.919     1 C    1.025     7 H    0.970
     3   6 C    3.991 --     4 C    1.025     1 C    0.996     5 H    0.969
                             9 H    0.969
     4   6 C    3.981 --     2 C    1.919     3 C    1.025    10 H    0.970
     5   1 H    0.999 --     3 C    0.969
     6   1 H    0.999 --     1 C    0.969
     7   1 H    0.999 --     2 C    0.970
     8   1 H    0.999 --     1 C    0.969
     9   1 H    0.999 --     3 C    0.969
    10   1 H    0.999 --     4 C    0.970
 ---------------------------------------------------------------------------

Topologies differ in total number of bonds
Writing topology from bond orders to xtbtopo.mol

molecular dipole:
                 x           y           z       tot (Debye)
 q only:       -0.028       0.133       0.032
   full:       -0.032       0.152       0.037       0.406
molecular quadrupole (traceless):
                xx          xy          yy          xz          yz          zz
 q only:        0.205      -0.060       0.077       0.087       0.084      -0.282
  q+dip:        0.767       0.035      -0.116       0.313       0.168      -0.651
   full:        0.321      -0.008      -0.099       0.112       0.020      -0.222

           -------------------------------------------------
Refinement of some symmetry elements was terminated before convergence was reached.
Some symmetry elements may remain unidentified.
Molecule has the following symmetry elements: (C2) 2*(sigma) 
It seems to be the C2v point group
          |                Geometry Summary                 |
           -------------------------------------------------

      molecular mass/u    :       54.0905881
   center of mass at/Å    :       -0.1328896      -0.0253678      -0.0741705
  moments of inertia/u·Å² :        0.3842047E+02   0.4040093E+02   0.7246643E+02
rotational constants/cm⁻¹ :        0.4387669E+00   0.4172585E+00   0.2326268E+00

 * 10 selected distances

     #   Z          #   Z                                           value/Å
     1   6 C        2   6 C                                       1.5035074
     1   6 C        3   6 C                                       1.5506494 (max)
     2   6 C        4   6 C                                       1.3288584
     3   6 C        4   6 C                                       1.5036352
     3   6 C        5   1 H                                       1.0894437
     1   6 C        6   1 H                                       1.0889485
     2   6 C        7   1 H                                       1.0753262
     1   6 C        8   1 H                                       1.0890172
     3   6 C        9   1 H                                       1.0891917
     4   6 C       10   1 H                                       1.0746798 (min)

 * 2 distinct bonds (by element types)

   Z      Z             #   av. dist./Å        max./Å        min./Å
   1 H    6 C           6     1.0844345     1.0894437     1.0746798
   6 C    6 C           4     1.4716626     1.5506494     1.3288584

           -------------------------------------------------
          |               Frequency Printout                |
           -------------------------------------------------
 projected vibrational frequencies (cm⁻¹)
eigval :       -0.00    -0.00     0.00     0.00     0.00     0.00
eigval :      319.07   696.25   819.98   864.51   868.06   964.03
eigval :      985.84  1004.65  1032.37  1063.67  1127.92  1170.49
eigval :     1198.37  1208.98  1266.93  1451.53  1466.24  1660.32
eigval :     2976.22  2995.65  2998.88  3002.66  3108.89  3129.14
 reduced masses (amu)
   1: 10.76   2:  9.31   3: 10.40   4:  8.84   5:  9.68   6:  8.82   7:  5.73   8:  1.67
   9:  3.62  10: 10.81  11:  2.20  12:  5.05  13:  7.39  14:  5.28  15:  2.64  16:  2.98
  17:  3.25  18:  9.27  19:  4.17  20:  5.90  21:  8.11  22:  1.97  23:  2.37  24: 11.20
  25:  2.00  26:  2.01  27:  1.50  28:  1.48  29:  1.79  30:  2.04
 IR intensities (km·mol⁻¹)
   1:  0.00   2:  0.05   3:  0.03   4:  0.04   5:  0.06   6:  0.10   7:  0.01   8: 24.36
   9:  0.00  10:  3.41  11:  3.58  12:  5.53  13:  0.00  14:  0.01  15:  0.01  16:  1.09
  17:  0.00  18:  3.77  19:  3.94  20:  2.00  21:  0.61  22:  0.00  23:  1.53  24:  2.55
  25:  0.52  26: 76.49  27: 51.34  28: 45.76  29: 41.55  30: 69.42
 Raman intensities (Ä⁴*amu⁻¹)
   1:  0.00   2:  0.00   3:  0.00   4:  0.00   5:  0.00   6:  0.00   7:  0.00   8:  0.00
   9:  0.00  10:  0.00  11:  0.00  12:  0.00  13:  0.00  14:  0.00  15:  0.00  16:  0.00
  17:  0.00  18:  0.00  19:  0.00  20:  0.00  21:  0.00  22:  0.00  23:  0.00  24:  0.00
  25:  0.00  26:  0.00  27:  0.00  28:  0.00  29:  0.00  30:  0.00
 output can be read by thermo (or use thermo option).
 writing <g98.out> molden fake output.
 recommended (thermochemical) frequency scaling factor: 1.0
           -------------------------------------------------
          |             Thermodynamic Functions             |
           -------------------------------------------------

c2v symmetry found (for desy threshold:  0.10E+00) used in thermo

          ...................................................
          :                      SETUP                      :
          :.................................................:
          :  # frequencies                          24      :
          :  # imaginary freq.                       0      :
          :  linear?                             false      :
          :  only rotor calc.                    false      :
          :  symmetry                              c2v      :
          :  rotational number                       2      :
Note: The following floating-point exceptions are signalling: IEEE_UNDERFLOW_FLAG
normal termination of xtb
          :  scaling factor                  1.0000000      :
          :  rotor cutoff                   50.0000000 cm⁻¹ :
          :  imag. cutoff                  -20.0000000 cm⁻¹ :
          :.................................................:

    mode    ω/cm⁻¹     T·S(HO)/kcal·mol⁻¹    T·S(FR)/kcal·mol⁻¹   T·S(vib)
   ------------------------------------------------------------------------
   ------------------------------------------------------------------------

   temp. (K)  partition function   enthalpy   heat capacity  entropy
                                   cal/mol     cal/K/mol   cal/K/mol   J/K/mol
 298.15  VIB   1.47                  618.955      7.294      2.839
         ROT  0.128E+05              888.752      2.981     21.776
         INT  0.188E+05             1507.707     10.275     24.616
         TR   0.385E+27             1481.254      4.968     37.869
         TOT                        2988.9610    15.2435    62.4847   261.4360

       T/K    H(0)-H(T)+PV         H(T)/Eh          T*S/Eh         G(T)/Eh
   ------------------------------------------------------------------------
    298.15    0.476321E-02    0.899226E-01    0.296885E-01    0.602342E-01
   ------------------------------------------------------------------------

         :::::::::::::::::::::::::::::::::::::::::::::::::::::
         ::                  THERMODYNAMIC                  ::
         :::::::::::::::::::::::::::::::::::::::::::::::::::::
         :: total free energy         -11.497734716669 Eh   ::
         ::.................................................::
         :: total energy              -11.557968867263 Eh   ::
         :: zero point energy           0.085159436204 Eh   ::
         :: G(RRHO) w/o ZPVE           -0.024925285609 Eh   ::
         :: G(RRHO) contrib.            0.060234150595 Eh   ::
         :::::::::::::::::::::::::::::::::::::::::::::::::::::

optimized geometry written to: xtbopt.xyz


           -------------------------------------------------
          | TOTAL ENERGY              -11.557968867263 Eh   |
          | TOTAL ENTHALPY            -11.468046218490 Eh   |
          | TOTAL FREE ENERGY         -11.497734716669 Eh   |
          | GRADIENT NORM               0.000667850086 Eh/α |
          | HOMO-LUMO GAP               5.166535718844 eV   |
           -------------------------------------------------

------------------------------------------------------------------------
 * finished run on 2026/09/04 at 18:33:05.528     
------------------------------------------------------------------------
 total:
 * wall-time:     0 d,  0 h,  0 min,  0.090 sec
 *  cpu-time:     0 d,  0 h,  0 min,  0.090 sec
 * ratio c/w:     0.997 speedup
 SCF:
 * wall-time:     0 d,  0 h,  0 min,  0.002 sec
 *  cpu-time:     0 d,  0 h,  0 min,  0.002 sec
 * ratio c/w:     0.999 speedup
 ANC optimizer:
 * wall-time:     0 d,  0 h,  0 min,  0.019 sec
 *  cpu-time:     0 d,  0 h,  0 min,  0.019 sec
 * ratio c/w:     0.995 speedup
 analytical hessian:
 * wall-time:     0 d,  0 h,  0 min,  0.066 sec
 *  cpu-time:     0 d,  0 h,  0 min,  0.066 sec
 * ratio c/w:     0.999 speedup

