10
 energy: -11.557968867263 gnorm: 0.000667914961 xtb: 6.7.1 (unknown)
C           -1.02285842877796        0.54432642113938       -0.08578168665794
C           -0.61567547909530       -0.86696179884484       -0.40672034410161
C            0.46948054912629        0.77250633992150        0.26829673190109
C            0.66297600486374       -0.67192572799348       -0.10196533889602
H            0.66112437163451        1.01495318797754        1.31298783263314
H           -1.38968186084136        1.12726346769630       -0.92924694535871
H           -1.18833853911342       -1.70760546325567       -0.75557766229148
H           -1.71320506444384        0.65122312885137        0.74965398821256
H            0.98747258479589        1.48952476137835       -0.36724018331906
H            1.54165397563442       -1.29067964815456       -0.10420838257247
