10
Properties=species:S:1:pos:R:3 pbc="F F F"
C       -0.75480000       0.77030000       0.00030000
C       -0.75350000      -0.77140000      -0.00030000
C        0.75360000       0.67280000      -0.00030000
C        0.75470000      -0.67160000       0.00030000
H       -1.20720000       1.22260000       0.88960000
H       -1.20790000       1.22330000      -0.88830000
H       -1.20510000      -1.22450000      -0.88950000
H       -1.20580000      -1.22520000       0.88830000
H        1.53900000       1.42110000      -0.00060000
H        1.54120000      -1.41870000       0.00060000
