21
Properties=species:S:1:pos:R:3:forces:R:3:energies:R:1 Aspirin=T (Acetylsalicylic=T acid)=T -=T C9H8O4=T energy=-137.35780334472656 stress="5.771947808597133e-09 8.220655267621169e-10 3.5534080122801015e-09 8.220655267621169e-10 1.6309266159808544e-09 -1.271102112454514e-09 3.5534080122801015e-09 -1.271102112454514e-09 3.4760641587361363e-10" free_energy=-137.35780334472656 pbc="F F F"
C        1.22232517      -0.41476781      -0.41372879      -0.00007746      -0.00050656      -0.00378027      -8.74961782
C        0.65459187       0.86453817      -0.54735796      -0.00246263       0.00027758       0.00089920      -8.76396251
C       -0.72393408       1.01336308      -0.34055080      -0.00311869      -0.00118163      -0.00251008      -8.98995203
C       -1.51928057      -0.09711208      -0.06141500       0.00002974       0.00034605      -0.00197511      -8.92625451
C       -0.94420416      -1.37428668      -0.01436577       0.00071216       0.00291729       0.00525506      -8.96412581
C        0.42445702      -1.53662616      -0.21746905      -0.00028706      -0.00043887      -0.00322931      -8.89675432
C        1.52919730       2.04365004      -0.80022858       0.00136268       0.00092733      -0.00036567      -9.30789495
O        0.97536500       3.14851890      -0.25186865      -0.00561245       0.00164318      -0.00031871      -7.52016191
O        2.58657524       2.02978214      -1.40594187       0.00661558      -0.00613543       0.00231794      -6.20300937
O        2.60144468      -0.60667839      -0.38335022       0.00181472       0.00113412       0.00612369      -7.07441208
C        3.27795502       0.16041175       0.53327293      -0.00130677       0.00221679       0.00386411      -9.30703676
O        2.71123077       0.86266209       1.34403356      -0.00864106       0.00269541       0.00144653      -6.16418695
C        4.74315221      -0.00409470       0.33247608      -0.00299814       0.00465449       0.00224610      -9.23563409
H       -1.13658913       2.02105355      -0.39730303       0.00484790       0.00024939       0.00456442      -3.70195778
H       -2.58776512       0.03817255       0.11172020       0.00213394      -0.00256752      -0.00471082      -3.75353532
H       -1.56177481      -2.25097113       0.18324836       0.00322428       0.00082844       0.00048289      -3.74729057
H        0.90023459      -2.51791639      -0.18449038       0.00081877      -0.00009164       0.00207469      -3.70621157
H        1.61513058       3.87415302      -0.37043608       0.00397022      -0.00054447       0.00325793      -3.30118531
H        5.27427409       0.43885469       1.17380532      -0.00211190      -0.00432313      -0.00500564      -3.69673361
H        4.99022738      -1.06548556       0.23655203       0.00318915      -0.00187764      -0.00126443      -3.67452745
H        5.02693767       0.51861250      -0.58730959      -0.00210303      -0.00022277      -0.00937271      -3.67334181
