15
Properties=species:S:1:pos:R:3 pbc="F F F"
C       -0.76110000      -0.67600000      -0.74800000
C       -0.76100000      -0.67580000       0.74800000
C        0.76010000      -0.67700000      -0.74790000
C        0.76010000      -0.67700000       0.74800000
C       -1.19660000       0.56990000       0.00000000
C        1.19730000       0.56820000      -0.00010000
C        0.00120000       1.56760000       0.00000000
H       -1.40380000      -1.35810000      -1.26880000
H       -1.40370000      -1.35790000       1.26890000
H        1.40170000      -1.35990000      -1.26890000
H        1.40180000      -1.35990000       1.26890000
H       -2.20470000       0.93240000       0.00000000
H        2.20600000       0.92930000       0.00000000
H        0.00160000       2.18360000      -0.90320000
H        0.00160000       2.18360000       0.90320000
