 Entering Gaussian System
 *********************************************
 Gaussian 98:
 frequency output generated by the xtb code
 *********************************************
                         Standard orientation:
 --------------------------------------------------------------------
  Center     Atomic     Atomic              Coordinates (Angstroms)
  Number     Number      Type              X           Y           Z
 --------------------------------------------------------------------
    1          6             0       -0.591823    1.473251    0.053928
    2          6             0       -0.542821   -1.550020    0.197578
    3          6             0        0.406813    0.679943   -0.315644
    4          6             0        0.481913   -0.755031   -0.087253
    5          1             0       -1.453685    1.100983    0.581197
    6          1             0       -0.578086    2.530461   -0.148748
    7          1             0       -1.550853   -1.179355    0.275120
    8          1             0       -0.411267   -2.607022    0.353783
    9          1             0        1.265248    1.109971   -0.817104
   10          1             0        1.472057   -1.183579   -0.183301
 --------------------------------------------------------------------
     1 basis functions        1 primitive gaussians
     1 alpha electrons        1 beta electrons

 Harmonic frequencies (cm**-1), IR intensities (km*mol⁻¹),
 Raman scattering activities (A**4/amu), Raman depolarization ratios,
 reduced masses (AMU), force constants (mDyne/A) and normal coordinates:
                      1                      2                      3
                        a                      a                      a 
 Frequencies --    94.3860               291.6288               460.1860
 Red. masses --     5.0104                 8.4318                 3.6049
 Frc consts  --     0.0000                 0.0000                 0.0000
 IR Inten    --     0.2497                 0.0671                 2.2319
 Raman Activ --     0.0000                 0.0000                 0.0000
 Depolar     --     0.0000                 0.0000                 0.0000
 Atom AN      X      Y      Z        X      Y      Z        X      Y      Z
   1   6     0.11   0.02   0.20     0.14   0.52  -0.07    -0.09   0.07  -0.12
   2   6    -0.03  -0.02  -0.23     0.16  -0.52  -0.03     0.01   0.07  -0.15
   3   6    -0.15  -0.06  -0.32    -0.20   0.01   0.08    -0.06  -0.09   0.28
   4   6     0.07   0.06   0.35    -0.21  -0.01   0.05     0.21  -0.09   0.19
   5   1     0.19   0.04   0.34    -0.03   0.29  -0.03     0.09   0.18   0.28
   6   1    -0.06  -0.02  -0.08     0.21   0.14  -0.07    -0.11  -0.05  -0.42
   7   1    -0.05  -0.04  -0.39    -0.01  -0.29   0.04     0.09   0.18   0.28
   8   1     0.00   0.02   0.10     0.21  -0.14  -0.07    -0.16  -0.05  -0.40
   9   1    -0.16  -0.07  -0.35    -0.02  -0.07   0.02    -0.16  -0.07  -0.21
  10   1     0.07   0.07   0.38    -0.03   0.07  -0.01     0.01  -0.07  -0.26
                      4                      5                      6
                        a                      a                      a 
 Frequencies --   564.8638               734.1538               883.3333
 Red. masses --     6.7545                 6.7285                 3.5713
 Frc consts  --     0.0000                 0.0000                 0.0000
 IR Inten    --     0.2383                 0.0083                 0.7611
 Raman Activ --     0.0000                 0.0000                 0.0000
 Depolar     --     0.0000                 0.0000                 0.0000
 Atom AN      X      Y      Z        X      Y      Z        X      Y      Z
   1   6    -0.09   0.16   0.07    -0.08   0.02  -0.09     0.14   0.04   0.29
   2   6     0.12   0.16   0.01    -0.01  -0.02   0.12    -0.05  -0.04  -0.32
   3   6    -0.39  -0.26   0.05     0.20   0.09   0.45    -0.05  -0.03  -0.09
   4   6     0.35  -0.26  -0.18    -0.10  -0.09  -0.48     0.01   0.03   0.10
   5   1    -0.20   0.28  -0.10     0.13   0.09   0.29    -0.12  -0.01  -0.20
   6   1     0.28   0.05   0.06    -0.13  -0.05  -0.31    -0.22  -0.09  -0.49
   7   1     0.10   0.28  -0.20    -0.06  -0.09  -0.31     0.02   0.01   0.23
   8   1    -0.19   0.05   0.21     0.07   0.05   0.33     0.10   0.09   0.52
   9   1    -0.08   0.01   0.14    -0.06   0.01  -0.09     0.07   0.05   0.17
  10   1     0.14   0.01   0.07     0.00  -0.01   0.11    -0.04  -0.05  -0.18
                      7                      8                      9
                        a                      a                      a 
 Frequencies --   893.4270               904.3623              1010.5924
 Red. masses --     4.0556                 5.8665                 1.8143
 Frc consts  --     0.0000                 0.0000                 0.0000
 IR Inten    --    23.9666                 1.0915                29.0874
 Raman Activ --     0.0000                 0.0000                 0.0000
 Depolar     --     0.0000                 0.0000                 0.0000
 Atom AN      X      Y      Z        X      Y      Z        X      Y      Z
   1   6    -0.16  -0.06  -0.29     0.02  -0.33   0.03    -0.04  -0.04  -0.07
   2   6    -0.05  -0.06  -0.33     0.00   0.33  -0.03    -0.01  -0.04  -0.08
   3   6     0.07   0.03   0.14    -0.06  -0.31   0.07    -0.06  -0.02  -0.16
   4   6     0.02   0.03   0.15    -0.09   0.31  -0.02    -0.05  -0.02  -0.16
   5   1     0.13   0.05   0.25    -0.11   0.26   0.05     0.19   0.09   0.38
   6   1     0.23   0.08   0.44     0.40  -0.12  -0.14    -0.01  -0.02  -0.07
   7   1     0.04   0.05   0.28    -0.12  -0.26   0.02     0.07   0.09   0.41
   8   1     0.07   0.08   0.49     0.40   0.12  -0.12    -0.03  -0.02  -0.06
   9   1    -0.07  -0.02  -0.15    -0.04  -0.02   0.04     0.22   0.11   0.46
  10   1    -0.03  -0.02  -0.16    -0.06   0.02  -0.01     0.09   0.11   0.50
                     10                     11                     12
                        a                      a                      a 
 Frequencies --  1018.6845              1066.2676              1073.6609
 Red. masses --     2.0955                 5.5770                 5.8748
 Frc consts  --     0.0000                 0.0000                 0.0000
 IR Inten    --     0.2099                 4.6972                 0.1940
 Raman Activ --     0.0000                 0.0000                 0.0000
 Depolar     --     0.0000                 0.0000                 0.0000
 Atom AN      X      Y      Z        X      Y      Z        X      Y      Z
   1   6     0.03  -0.02   0.11    -0.05  -0.31   0.09     0.19  -0.00  -0.07
   2   6    -0.04   0.01  -0.10     0.09  -0.31   0.05     0.20   0.01  -0.05
   3   6     0.10   0.08   0.15     0.21   0.21  -0.09    -0.17  -0.33   0.22
   4   6    -0.01  -0.08  -0.18    -0.22   0.21   0.05    -0.26   0.32  -0.08
   5   1    -0.22  -0.01  -0.35    -0.17   0.28   0.01     0.12  -0.25  -0.08
   6   1     0.05  -0.01   0.00     0.32  -0.12  -0.17    -0.12  -0.00   0.03
   7   1     0.03   0.01   0.41     0.14   0.28  -0.09     0.14   0.25  -0.01
   8   1     0.04   0.01  -0.03    -0.36  -0.12   0.05    -0.12   0.00   0.05
   9   1    -0.24  -0.04  -0.47    -0.04   0.19  -0.06     0.06  -0.42  -0.03
  10   1     0.08   0.04   0.52    -0.00   0.19  -0.07     0.07   0.42  -0.01
                     13                     14                     15
                        a                      a                      a 
 Frequencies --  1282.3291              1327.9674              1390.7250
 Red. masses --     2.7085                 3.6244                 2.1906
 Frc consts  --     0.0000                 0.0000                 0.0000
 IR Inten    --     1.1529                 0.2550                 0.3671
 Raman Activ --     0.0000                 0.0000                 0.0000
 Depolar     --     0.0000                 0.0000                 0.0000
 Atom AN      X      Y      Z        X      Y      Z        X      Y      Z
   1   6     0.22  -0.01  -0.11     0.19   0.04  -0.11     0.07  -0.03  -0.03
   2   6    -0.24  -0.01   0.04     0.22  -0.04  -0.03    -0.07  -0.03   0.02
   3   6    -0.06  -0.10   0.08    -0.14  -0.20   0.10     0.16  -0.14  -0.05
   4   6     0.09  -0.10   0.03    -0.17   0.20  -0.00    -0.16  -0.14   0.06
   5   1     0.12  -0.15  -0.04     0.13  -0.19  -0.04    -0.18   0.41   0.01
   6   1     0.01  -0.01  -0.01    -0.01   0.01   0.01    -0.43   0.06   0.21
   7   1    -0.12  -0.15   0.04     0.13   0.19  -0.04     0.15   0.41  -0.09
   8   1    -0.02  -0.01  -0.00    -0.01  -0.01  -0.00     0.47   0.06  -0.08
   9   1    -0.29   0.54   0.04    -0.30   0.49   0.05    -0.03   0.12  -0.01
  10   1     0.26   0.54  -0.14    -0.27  -0.49   0.14     0.02   0.12  -0.03
                     16                     17                     18
                        a                      a                      a 
 Frequencies --  1427.3167              1653.9995              1689.4807
 Red. masses --     2.8383                11.2624                10.8816
 Frc consts  --     0.0000                 0.0000                 0.0000
 IR Inten    --     0.0004                 0.6189                 0.7282
 Raman Activ --     0.0000                 0.0000                 0.0000
 Depolar     --     0.0000                 0.0000                 0.0000
 Atom AN      X      Y      Z        X      Y      Z        X      Y      Z
   1   6    -0.09   0.03   0.04    -0.32   0.28   0.12     0.34  -0.27  -0.13
   2   6    -0.10  -0.03   0.02    -0.33  -0.28   0.09    -0.35  -0.27   0.10
   3   6    -0.10   0.25   0.00     0.31  -0.41  -0.08    -0.37   0.30   0.13
   4   6    -0.08  -0.25   0.05     0.30   0.41  -0.11     0.38   0.30  -0.12
   5   1     0.16  -0.40  -0.01    -0.01  -0.14   0.02     0.02   0.12  -0.03
   6   1     0.43  -0.06  -0.22     0.08   0.06  -0.04    -0.08  -0.06   0.06
   7   1     0.14   0.40  -0.08    -0.02   0.14  -0.01    -0.04   0.12  -0.02
   8   1     0.47   0.06  -0.07     0.09  -0.06  -0.01     0.11  -0.06   0.00
   9   1     0.03  -0.05   0.00     0.02   0.04  -0.04     0.00  -0.14   0.03
  10   1     0.02   0.05  -0.02     0.04  -0.04   0.02     0.02  -0.14   0.02
                     19                     20                     21
                        a                      a                      a 
 Frequencies --  3043.4797              3053.5759              3106.4180
 Red. masses --     1.7705                 1.8421                 1.5199
 Frc consts  --     0.0000                 0.0000                 0.0000
 IR Inten    --    17.0249                59.0994                 8.3313
 Raman Activ --     0.0000                 0.0000                 0.0000
 Depolar     --     0.0000                 0.0000                 0.0000
 Atom AN      X      Y      Z        X      Y      Z        X      Y      Z
   1   6    -0.01  -0.01   0.01    -0.02  -0.02   0.01     0.11  -0.07  -0.05
   2   6     0.01  -0.01  -0.00    -0.02   0.02  -0.00    -0.14  -0.08   0.03
   3   6     0.15   0.07  -0.09     0.16   0.07  -0.09    -0.01   0.01   0.00
   4   6    -0.17   0.07   0.02     0.18  -0.07  -0.02     0.01   0.01  -0.00
   5   1     0.04   0.01  -0.02     0.05   0.02  -0.03    -0.38  -0.18   0.23
   6   1    -0.00   0.04  -0.01    -0.00   0.07  -0.01     0.02   0.40  -0.08
   7   1    -0.04   0.01   0.00     0.05  -0.02  -0.01     0.52  -0.21  -0.04
   8   1    -0.00   0.05  -0.01     0.01  -0.07   0.01    -0.08   0.47  -0.07
   9   1    -0.54  -0.27   0.31    -0.54  -0.27   0.31    -0.00  -0.00   0.00
  10   1     0.62  -0.27  -0.06    -0.61   0.26   0.06     0.01  -0.00  -0.00
                     22                     23                     24
                        a                      a                      a 
 Frequencies --  3108.7028              3128.8363              3132.9108
 Red. masses --     1.5067                 2.1059                 2.1011
 Frc consts  --     0.0000                 0.0000                 0.0000
 IR Inten    --    17.4561                59.3035                37.9865
 Raman Activ --     0.0000                 0.0000                 0.0000
 Depolar     --     0.0000                 0.0000                 0.0000
 Atom AN      X      Y      Z        X      Y      Z        X      Y      Z
   1   6    -0.12   0.10   0.04    -0.09  -0.17   0.08     0.11   0.18  -0.09
   2   6    -0.10  -0.09   0.03     0.13  -0.19   0.01     0.13  -0.16   0.01
   3   6     0.01  -0.00  -0.00    -0.02  -0.01   0.01     0.02   0.02  -0.02
   4   6     0.01   0.00  -0.00     0.02  -0.01  -0.00     0.03  -0.02  -0.00
   5   1     0.40   0.20  -0.25     0.34   0.13  -0.20    -0.41  -0.17   0.25
   6   1    -0.02  -0.53   0.11    -0.00   0.48  -0.09     0.01  -0.46   0.08
   7   1     0.40  -0.16  -0.03    -0.42   0.14   0.03    -0.44   0.15   0.04
   8   1    -0.07   0.45  -0.06    -0.05   0.52  -0.08    -0.04   0.43  -0.07
   9   1    -0.01  -0.00   0.00     0.04   0.02  -0.03    -0.07  -0.04   0.04
  10   1    -0.01   0.00   0.00    -0.06   0.03   0.01    -0.08   0.04   0.01
