      -----------------------------------------------------------      
     |                   =====================                   |     
     |                           x T B                           |     
     |                   =====================                   |     
     |                         S. Grimme                         |     
     |          Mulliken Center for Theoretical Chemistry        |     
     |                    University of Bonn                     |     
      -----------------------------------------------------------      

   * xtb version 6.7.1 (unknown) compiled by 'runner@Mac-1732184002186.local' on 2024-11-21

   xtb is free software: you can redistribute it and/or modify it under
   the terms of the GNU Lesser General Public License as published by
   the Free Software Foundation, either version 3 of the License, or
   (at your option) any later version.
   
   xtb is distributed in the hope that it will be useful,
   but WITHOUT ANY WARRANTY; without even the implied warranty of
   MERCHANTABILITY or FITNESS FOR A PARTICULAR PURPOSE.  See the
   GNU Lesser General Public License for more details.
   
   Cite this work as:
   * C. Bannwarth, E. Caldeweyher, S. Ehlert, A. Hansen, P. Pracht,
     J. Seibert, S. Spicher, S. Grimme, WIREs Comput. Mol. Sci., 2020, 11,
     e01493. DOI: 10.1002/wcms.1493
   
   for GFN2-xTB:
   * C. Bannwarth, S. Ehlert and S. Grimme., J. Chem. Theory Comput., 2019,
     15, 1652-1671. DOI: 10.1021/acs.jctc.8b01176
   for GFN1-xTB:
   * S. Grimme, C. Bannwarth, P. Shushkov, J. Chem. Theory Comput., 2017,
     13, 1989-2009. DOI: 10.1021/acs.jctc.7b00118
   for GFN0-xTB:
   * P. Pracht, E. Caldeweyher, S. Ehlert, S. Grimme, ChemRxiv, 2019, preprint.
     DOI: 10.26434/chemrxiv.8326202.v1
   for GFN-FF:
   * S. Spicher and S. Grimme, Angew. Chem. Int. Ed., 2020, 59, 15665-15673.
     DOI: 10.1002/anie.202004239
   
   for ALPB and GBSA implicit solvation:
   * S. Ehlert, M. Stahn, S. Spicher, S. Grimme, J. Chem. Theory Comput.,
     2021, 17, 4250-4261. DOI: 10.1021/acs.jctc.1c00471
   
   for ddCOSMO and CPCM-X implicit solvation:
   * M. Stahn, S. Ehlert, S. Grimme, J. Phys. Chem. A,
     2023, XX, XXXX-XXXX. DOI: 10.1021/acs.jpca.3c04382
   
   for DFT-D4:
   * E. Caldeweyher, C. Bannwarth and S. Grimme, J. Chem. Phys., 2017,
     147, 034112. DOI: 10.1063/1.4993215
   * E. Caldeweyher, S. Ehlert, A. Hansen, H. Neugebauer, S. Spicher,
     C. Bannwarth and S. Grimme, J. Chem. Phys., 2019, 150, 154122.
     DOI: 10.1063/1.5090222
   * E. Caldeweyher, J.-M. Mewes, S. Ehlert and S. Grimme, Phys. Chem. Chem. Phys.
     2020, 22, 8499-8512. DOI: 10.1039/D0CP00502A
   
   for sTDA-xTB:
   * S. Grimme and C. Bannwarth, J. Chem. Phys., 2016, 145, 054103.
     DOI: 10.1063/1.4959605
   
   in the mass-spec context:
   * V. Asgeirsson, C. Bauer and S. Grimme, Chem. Sci., 2017, 8, 4879.
     DOI: 10.1039/c7sc00601b
   * J. Koopman and S. Grimme, ACS Omega 2019, 4, 12, 15120-15133.
     DOI: 10.1021/acsomega.9b02011
   
   for metadynamics refer to:
   * S. Grimme, J. Chem. Theory Comput., 2019, 155, 2847-2862
     DOI: 10.1021/acs.jctc.9b00143
   
   for SPH calculations refer to:
   * S. Spicher and S. Grimme, J. Chem. Theory Comput., 2021, 17, 1701-1714
     DOI: 10.1021/acs.jctc.0c01306
   
   for ONIOM refer to:
   * C. Plett, A. Katbashev, S. Ehlert, S. Grimme, M. Bursch,
     Phys. Chem. Chem. Phys., 2023, 25, 17860-17868. DOI: 10.1039/D3CP02178E
   
   for DIPRO refer to:
   * J. Kohn, N. Gildemeister, S. Grimme, D. Fazzi, A. Hansen,
     J. Chem. Phys., 2023, just accepted.
   
   for PTB refer to:
   * S. Grimme, M. Mueller, A. Hansen, J. Chem. Phys., 2023, 158, 124111.
     DOI: 10.1063/5.0137838
   
   with help from (in alphabetical order)
   P. Atkinson, C. Bannwarth, F. Bohle, G. Brandenburg, E. Caldeweyher
   M. Checinski, S. Dohm, S. Ehlert, S. Ehrlich, I. Gerasimov, C. Hölzer
   A. Katbashev, J. Kohn, J. Koopman, C. Lavigne, S. Lehtola, F. März, M. Müller,
   F. Musil, H. Neugebauer, J. Pisarek, C. Plett, P. Pracht, F. Pultar,
   J. Seibert, P. Shushkov, S. Spicher, M. Stahn, M. Steiner, T. Strunk,
   J. Stückrath, T. Rose, and J. Unsleber
   
 * started run on 2026/09/04 at 18:33:07.808     
   ID    Z sym.   atoms
    1    6 C      1-4
    2    1 H      5-10

           -------------------------------------------------
          |                Calculation Setup                |
           -------------------------------------------------

          program call               : /opt/homebrew/bin/xtb temp_frame_opt.xyz --chrg 0 --uhf 0 --gfn 2 --acc 1.0 --etemp 300.0 --parallel 1 --ohess normal --input control.txt
          coordinate file            : temp_frame_opt.xyz
          omp threads                :                     1


molecular fragmentation (1/2 indicates fragments):
1111211111
# atoms in fragment 1/2:     9     1
 fragment masses (1/2) :       53.08        1.01
CMA distance (Bohr)    :   2.952
constraining FC (au)   :  0.0500

           -------------------------------------------------
          |                 G F N 2 - x T B                 |
           -------------------------------------------------

        Reference                      10.1021/acs.jctc.8b01176
      * Hamiltonian:
        H0-scaling (s, p, d)           1.850000    2.230000    2.230000
        zeta-weighting                 0.500000
      * Dispersion:
        s8                             2.700000
        a1                             0.520000
        a2                             5.000000
        s9                             5.000000
      * Repulsion:
        kExp                           1.500000    1.000000
        rExp                           1.000000
      * Coulomb:
        alpha                          2.000000
        third order                    shell-resolved
        anisotropic                    true
        a3                             3.000000
        a5                             4.000000
        cn-shift                       1.200000
        cn-exp                         4.000000
        max-rad                        5.000000

q/qsh data taken from xtbrestart
CAMM data taken from xtbrestart

          ...................................................
          :                      SETUP                      :
          :.................................................:
          :  # basis functions                  22          :
          :  # atomic orbitals                  22          :
          :  # shells                           14          :
          :  # electrons                        22          :
          :  max. iterations                   250          :
          :  Hamiltonian                  GFN2-xTB          :
          :  restarted?                       true          :
          :  GBSA solvation                  false          :
          :  PC potential                    false          :
          :  electronic temp.          300.0000000     K    :
          :  accuracy                    1.0000000          :
          :  -> integral cutoff          0.2500000E+02      :
          :  -> integral neglect         0.1000000E-07      :
          :  -> SCF convergence          0.1000000E-05 Eh   :
          :  -> wf. convergence          0.1000000E-03 e    :
          :  Broyden damping             0.4000000          :
          :  net charge                          0          :
          :  unpaired electrons                  0          :
          ...................................................

 iter      E             dE          RMSdq      gap      omega  full diag
   1    -11.5542463 -0.115542E+02  0.573E+00    3.22       0.0  T
   2    -11.5547020 -0.455646E-03  0.337E+00    3.25       1.0  T
   3    -11.5479610  0.674094E-02  0.876E-01    3.11       1.0  T
   4    -11.5548739 -0.691281E-02  0.212E-01    3.16       1.0  T
   5    -11.5551979 -0.324009E-03  0.112E-01    3.16       1.0  T
   6    -11.5552606 -0.627015E-04  0.423E-02    3.17       1.0  T
   7    -11.5552664 -0.586030E-05  0.921E-03    3.16       3.4  T
   8    -11.5552665 -0.662386E-07  0.243E-03    3.16      13.0  T
   9    -11.5552665 -0.532084E-08  0.801E-04    3.16      39.5  T
  10    -11.5552665 -0.202093E-08  0.242E-04    3.16     130.8  T

   *** convergence criteria satisfied after 10 iterations ***

         #    Occupation            Energy/Eh            Energy/eV
      -------------------------------------------------------------
         1        2.0000           -0.6099878             -16.5986
       ...           ...                  ...                  ...
         5        2.0000           -0.4999552             -13.6045
         6        2.0000           -0.4898214             -13.3287
         7        2.0000           -0.4663983             -12.6913
         8        2.0000           -0.4357060             -11.8562
         9        2.0000           -0.4226225             -11.5001
        10        2.0000           -0.3797698             -10.3341
        11        2.0000           -0.3714898             -10.1088 (HOMO)
        12                         -0.2551809              -6.9438 (LUMO)
        13                         -0.2227004              -6.0600
        14                         -0.1422913              -3.8719
        15                         -0.0522422              -1.4216
        16                          0.0385820               1.0499
       ...                                ...                  ...
        22                          0.6235475              16.9676
      -------------------------------------------------------------
                  HL-Gap            0.1163089 Eh            3.1649 eV
             Fermi-level           -0.3133354 Eh           -8.5263 eV

 SCC (total)                   0 d,  0 h,  0 min,  0.002 sec
 SCC setup                      ...        0 min,  0.000 sec (  2.043%)
 Dispersion                     ...        0 min,  0.000 sec (  1.273%)
 classical contributions        ...        0 min,  0.000 sec (  0.456%)
 integral evaluation            ...        0 min,  0.000 sec ( 13.311%)
 iterations                     ...        0 min,  0.001 sec ( 49.772%)
 molecular gradient             ...        0 min,  0.000 sec ( 31.165%)
 printout                       ...        0 min,  0.000 sec (  1.729%)

         :::::::::::::::::::::::::::::::::::::::::::::::::::::
         ::                     SUMMARY                     ::
         :::::::::::::::::::::::::::::::::::::::::::::::::::::
         :: total energy             -11.385823985754 Eh    ::
         :: gradient norm              0.252649503626 Eh/a0 ::
         :: HOMO-LUMO gap              3.164926955254 eV    ::
         ::.................................................::
         :: SCC energy               -11.555264522990 Eh    ::
         :: -> isotropic ES            0.001726178008 Eh    ::
         :: -> anisotropic ES          0.003252054661 Eh    ::
         :: -> anisotropic XC          0.016864486749 Eh    ::
         :: -> dispersion             -0.004911945641 Eh    ::
         :: repulsion energy           0.169440537236 Eh    ::
         :: add. restraining           0.000000000000 Eh    ::
         :: total charge               0.000000000000 e     ::
         :::::::::::::::::::::::::::::::::::::::::::::::::::::

      ----------------------------------------------------------- 
     |                       L-ANC optimizer                     |
      ----------------------------------------------------------- 
          low memory version by Sebastian Ehlert

          ...................................................
          :                      SETUP                      :
          :.................................................:
          :   energy convergence        0.5000000E-05 Eh    :
          :   grad. convergence         0.1000000E-02 Eh/a0 :
          :   optimization log               true           :
          :   writing optlog all                1     steps :
          :   Hessian reset                    25     steps :
          :   maximium step len.        1.0000000     a0    :
          :   LBFGS images                     25           :
          ...................................................
 * calculating model hessian...
Using Lindh-Hessian (1995)
 Shifting diagonal of input Hessian by    1.0000000000000000E-002
 Lowest  eigenvalues of input Hessian
    0.000000    0.000000    0.000000    0.000000    0.000000    0.000000
    0.012018    0.012426    0.013479    0.015491    0.019986    0.031976
    0.033559    0.047853    0.050310    0.071459    0.077178    0.095409
 Highest eigenvalues
    0.711841    0.745818    1.087028    1.338727    1.503685    1.827166


........................................................................
.............................. CYCLE    1 ..............................
........................................................................

 iter      E             dE          RMSdq      gap      omega  full diag
   1    -11.6745012 -0.116745E+02  0.972E-01    4.47       0.0  T
   2    -11.6745797 -0.785064E-04  0.581E-01    4.48       1.0  T
   3    -11.6741701  0.409583E-03  0.233E-01    4.48       1.0  T
   4    -11.6746228 -0.452658E-03  0.520E-02    4.48       1.0  T
   5    -11.6746299 -0.710065E-05  0.244E-02    4.48       1.3  T
   6    -11.6746329 -0.297884E-05  0.114E-02    4.48       2.8  T
   7    -11.6746336 -0.754927E-06  0.270E-03    4.48      11.7  T
   8    -11.6746336 -0.541943E-08  0.627E-04    4.48      50.4  T
   9    -11.6746336 -0.349262E-09  0.118E-04    4.48     268.3  T
     SCC iter.                  ...        0 min,  0.001 sec
     gradient                   ...        0 min,  0.000 sec
 * total energy  :   -11.4864159 Eh     change       -0.1005919E+00 Eh
   gradient norm :     0.1356823 Eh/a0  converged?    E=F G=F D=F
   step length   :     0.6300436 a0

........................................................................
.............................. CYCLE    2 ..............................
........................................................................

 iter      E             dE          RMSdq      gap      omega  full diag
   1    -11.7597546 -0.117598E+02  0.146E+00    5.15       0.0  T
   2    -11.7598114 -0.567785E-04  0.882E-01    5.14       1.0  T
   3    -11.7575237  0.228768E-02  0.578E-01    5.18       1.0  T
   4    -11.7601877 -0.266395E-02  0.444E-02    5.16       1.0  T
   5    -11.7601887 -0.101313E-05  0.242E-02    5.16       1.3  T
   6    -11.7601917 -0.301632E-05  0.755E-03    5.16       4.2  T
   7    -11.7601918 -0.998473E-07  0.146E-03    5.16      21.6  T
   8    -11.7601918 -0.143708E-08  0.514E-04    5.16      61.6  T
   9    -11.7601918 -0.124166E-09  0.802E-05    5.16     394.3  T
     SCC iter.                  ...        0 min,  0.001 sec
     gradient                   ...        0 min,  0.000 sec
 * total energy  :   -11.5173258 Eh     change       -0.3090997E-01 Eh
   gradient norm :     0.1396954 Eh/a0  converged?    E=F G=F D=F
   step length   :     2.7369657 a0

........................................................................
.............................. CYCLE    3 ..............................
........................................................................

 iter      E             dE          RMSdq      gap      omega  full diag
   1    -11.7220366 -0.117220E+02  0.135E+00    4.82       0.0  T
   2    -11.7223403 -0.303717E-03  0.792E-01    4.81       1.0  T
   3    -11.7220851  0.255250E-03  0.238E-01    4.80       1.0  T
   4    -11.7223696 -0.284575E-03  0.619E-02    4.81       1.0  T
   5    -11.7223965 -0.268238E-04  0.311E-02    4.81       1.0  T
   6    -11.7223996 -0.308330E-05  0.155E-02    4.81       2.0  T
   7    -11.7224007 -0.116970E-05  0.490E-03    4.81       6.5  T
   8    -11.7224008 -0.580955E-07  0.145E-03    4.81      21.8  T
   9    -11.7224008 -0.306217E-08  0.117E-04    4.81     271.4  T
  10    -11.7224008 -0.698996E-11  0.433E-05    4.81     729.7  T
     SCC iter.                  ...        0 min,  0.001 sec
     gradient                   ...        0 min,  0.000 sec
 * total energy  :   -11.5125434 Eh     change        0.4782423E-02 Eh
   gradient norm :     0.1134002 Eh/a0  converged?    E=F G=F D=F
   step length   :     2.3724998 a0

........................................................................
.............................. CYCLE    4 ..............................
........................................................................

 iter      E             dE          RMSdq      gap      omega  full diag
   1    -11.7401819 -0.117402E+02  0.168E+00    4.84       0.0  T
   2    -11.7401781  0.380709E-05  0.106E+00    4.84       1.0  T
   3    -11.7368922  0.328590E-02  0.817E-01    4.86       1.0  T
   4    -11.7415601 -0.466793E-02  0.631E-02    4.86       1.0  T
   5    -11.7415658 -0.574658E-05  0.356E-02    4.85       1.0  T
   6    -11.7415729 -0.705649E-05  0.141E-02    4.85       2.2  T
   7    -11.7415734 -0.526168E-06  0.280E-03    4.85      11.3  T
   8    -11.7415734 -0.130692E-07  0.104E-03    4.85      30.4  T
   9    -11.7415734 -0.860043E-09  0.876E-05    4.85     361.1  T
  10    -11.7415734 -0.165645E-10  0.368E-05    4.85     858.7  T
     SCC iter.                  ...        0 min,  0.001 sec
     gradient                   ...        0 min,  0.000 sec
 * total energy  :   -11.5260245 Eh     change       -0.1348111E-01 Eh
   gradient norm :     0.0853817 Eh/a0  converged?    E=F G=F D=F
   step length   :     1.3668040 a0

........................................................................
.............................. CYCLE    5 ..............................
........................................................................

 iter      E             dE          RMSdq      gap      omega  full diag
   1    -11.7640035 -0.117640E+02  0.166E+00    5.24       0.0  T
   2    -11.7640651 -0.616026E-04  0.973E-01    5.28       1.0  T
   3    -11.7622320  0.183314E-02  0.515E-01    5.26       1.0  T
   4    -11.7642965 -0.206447E-02  0.346E-02    5.27       1.0  T
   5    -11.7642983 -0.185801E-05  0.184E-02    5.27       1.7  T
   6    -11.7642996 -0.130760E-05  0.687E-03    5.27       4.6  T
   7    -11.7642998 -0.124956E-06  0.157E-03    5.27      20.2  T
   8    -11.7642998 -0.217032E-08  0.247E-04    5.27     127.9  T
   9    -11.7642998 -0.897913E-10  0.546E-05    5.27     579.1  T
     SCC iter.                  ...        0 min,  0.001 sec
     gradient                   ...        0 min,  0.000 sec
 * total energy  :   -11.5336627 Eh     change       -0.7638183E-02 Eh
   gradient norm :     0.0627904 Eh/a0  converged?    E=F G=F D=F
   step length   :     1.0015485 a0

........................................................................
.............................. CYCLE    6 ..............................
........................................................................

 iter      E             dE          RMSdq      gap      omega  full diag
   1    -11.7681503 -0.117682E+02  0.101E+00    5.15       0.0  T
   2    -11.7681800 -0.297253E-04  0.609E-01    5.14       1.0  T
   3    -11.7675765  0.603550E-03  0.266E-01    5.15       1.0  T
   4    -11.7682396 -0.663140E-03  0.221E-02    5.15       1.4  T
   5    -11.7682402 -0.591052E-06  0.996E-03    5.15       3.2  T
   6    -11.7682402  0.210129E-07  0.305E-03    5.15      10.4  T
   7    -11.7682402 -0.414097E-07  0.803E-04    5.15      39.4  T
   8    -11.7682402 -0.165802E-08  0.254E-04    5.15     124.7  T
     SCC iter.                  ...        0 min,  0.000 sec
     gradient                   ...        0 min,  0.000 sec
 * total energy  :   -11.5387638 Eh     change       -0.5101144E-02 Eh
   gradient norm :     0.0546629 Eh/a0  converged?    E=F G=F D=F
   step length   :     0.7271910 a0

........................................................................
.............................. CYCLE    7 ..............................
........................................................................

 iter      E             dE          RMSdq      gap      omega  full diag
   1    -11.7741986 -0.117742E+02  0.764E-01    5.14       0.0  T
   2    -11.7742369 -0.383412E-04  0.455E-01    5.16       1.0  T
   3    -11.7741739  0.629969E-04  0.959E-02    5.15       1.0  T
   4    -11.7742473 -0.733306E-04  0.198E-02    5.16       1.6  T
   5    -11.7742493 -0.206782E-05  0.879E-03    5.16       3.6  T
   6    -11.7742494 -0.619739E-07  0.597E-03    5.16       5.3  T
   7    -11.7742496 -0.153287E-06  0.596E-04    5.16      53.1  T
   8    -11.7742496 -0.216655E-09  0.117E-04    5.16     271.3  T
     SCC iter.                  ...        0 min,  0.001 sec
     gradient                   ...        0 min,  0.001 sec
 * total energy  :   -11.5397220 Eh     change       -0.9581212E-03 Eh
   gradient norm :     0.0437167 Eh/a0  converged?    E=F G=F D=F
   step length   :     0.4785875 a0

........................................................................
.............................. CYCLE    8 ..............................
........................................................................

 iter      E             dE          RMSdq      gap      omega  full diag
   1    -11.7715188 -0.117715E+02  0.609E-01    5.29       0.0  T
   2    -11.7715233 -0.452766E-05  0.373E-01    5.29       1.0  T
   3    -11.7711682  0.355109E-03  0.207E-01    5.29       1.0  T
   4    -11.7715626 -0.394451E-03  0.777E-03    5.29       4.1  T
   5    -11.7715627 -0.187314E-07  0.329E-03    5.29       9.6  T
   6    -11.7715627  0.569399E-08  0.151E-03    5.29      21.0  T
   7    -11.7715627 -0.112814E-07  0.379E-04    5.29      83.4  T
   8    -11.7715627 -0.445164E-09  0.122E-04    5.29     259.2  T
     SCC iter.                  ...        0 min,  0.000 sec
     gradient                   ...        0 min,  0.001 sec
 * total energy  :   -11.5434503 Eh     change       -0.3728342E-02 Eh
   gradient norm :     0.0230863 Eh/a0  converged?    E=F G=F D=F
   step length   :     0.4159449 a0

........................................................................
.............................. CYCLE    9 ..............................
........................................................................

 iter      E             dE          RMSdq      gap      omega  full diag
   1    -11.7787572 -0.117788E+02  0.251E-01    5.29       0.0  T
   2    -11.7787598 -0.256212E-05  0.162E-01    5.29       1.0  T
   3    -11.7786856  0.741453E-04  0.108E-01    5.29       1.0  T
   4    -11.7787812 -0.955628E-04  0.758E-03    5.29       4.2  T
   5    -11.7787813 -0.116221E-06  0.322E-03    5.29       9.8  T
   6    -11.7787813 -0.357012E-07  0.212E-03    5.29      14.9  T
   7    -11.7787813 -0.147163E-07  0.361E-04    5.29      87.7  T
   8    -11.7787813 -0.761027E-10  0.130E-04    5.29     243.4  T
     SCC iter.                  ...        0 min,  0.000 sec
     gradient                   ...        0 min,  0.000 sec
 * total energy  :   -11.5439806 Eh     change       -0.5302837E-03 Eh
   gradient norm :     0.0157605 Eh/a0  converged?    E=F G=F D=F
   step length   :     0.1805402 a0

........................................................................
.............................. CYCLE   10 ..............................
........................................................................

 iter      E             dE          RMSdq      gap      omega  full diag
   1    -11.7765841 -0.117766E+02  0.120E-01    5.22       0.0  T
   2    -11.7765844 -0.313233E-06  0.738E-02    5.22       1.0  T
   3    -11.7765710  0.134080E-04  0.392E-02    5.21       1.0  T
   4    -11.7765859 -0.149057E-04  0.292E-03    5.21      10.8  T
   5    -11.7765859 -0.157245E-07  0.482E-04    5.21      65.7  T
   6    -11.7765859 -0.162160E-09  0.210E-04    5.21     150.7  T
     SCC iter.                  ...        0 min,  0.000 sec
     gradient                   ...        0 min,  0.001 sec
 * total energy  :   -11.5442807 Eh     change       -0.3001364E-03 Eh
   gradient norm :     0.0059654 Eh/a0  converged?    E=F G=F D=F
   step length   :     0.0932181 a0

........................................................................
.............................. CYCLE   11 ..............................
........................................................................

 iter      E             dE          RMSdq      gap      omega  full diag
   1    -11.7747628 -0.117748E+02  0.127E-01    5.16       0.0  T
   2    -11.7747630 -0.192571E-06  0.751E-02    5.16       1.0  T
   3    -11.7747587  0.428821E-05  0.228E-02    5.16       1.4  T
   4    -11.7747634 -0.469219E-05  0.160E-03    5.16      19.8  T
   5    -11.7747634 -0.343542E-09  0.766E-04    5.16      41.3  T
   6    -11.7747634  0.134843E-09  0.513E-04    5.16      61.6  T
     SCC iter.                  ...        0 min,  0.000 sec
     gradient                   ...        0 min,  0.000 sec
 * total energy  :   -11.5443922 Eh     change       -0.1114312E-03 Eh
   gradient norm :     0.0085464 Eh/a0  converged?    E=F G=F D=F
   step length   :     0.0931015 a0

........................................................................
.............................. CYCLE   12 ..............................
........................................................................

 iter      E             dE          RMSdq      gap      omega  full diag
   1    -11.7758711 -0.117759E+02  0.177E-01    5.10       0.0  T
   2    -11.7758715 -0.405948E-06  0.105E-01    5.10       1.0  T
   3    -11.7758690  0.251148E-05  0.174E-02    5.10       1.8  T
   4    -11.7758719 -0.285894E-05  0.256E-03    5.10      12.4  T
   5    -11.7758719 -0.841704E-08  0.893E-04    5.10      35.4  T
   6    -11.7758719 -0.360625E-08  0.482E-04    5.10      65.7  T
     SCC iter.                  ...        0 min,  0.000 sec
     gradient                   ...        0 min,  0.000 sec
 * total energy  :   -11.5445746 Eh     change       -0.1824541E-03 Eh
   gradient norm :     0.0060948 Eh/a0  converged?    E=F G=F D=F
   step length   :     0.1432457 a0

........................................................................
.............................. CYCLE   13 ..............................
........................................................................

 iter      E             dE          RMSdq      gap      omega  full diag
   1    -11.7766024 -0.117766E+02  0.418E-01    4.90       0.0  T
   2    -11.7766041 -0.170065E-05  0.247E-01    4.90       1.0  T
   3    -11.7765961  0.799356E-05  0.331E-02    4.90       1.0  T
   4    -11.7766053 -0.924567E-05  0.413E-03    4.90       7.7  T
   5    -11.7766053 -0.173151E-07  0.229E-03    4.90      13.8  T
   6    -11.7766053 -0.106276E-07  0.136E-03    4.90      23.2  T
   7    -11.7766053 -0.746375E-08  0.131E-04    4.90     241.6  T
   8    -11.7766053 -0.224603E-10  0.433E-05    4.90     730.1  T
     SCC iter.                  ...        0 min,  0.000 sec
     gradient                   ...        0 min,  0.000 sec
 * total energy  :   -11.5449092 Eh     change       -0.3345432E-03 Eh
   gradient norm :     0.0085207 Eh/a0  converged?    E=F G=F D=F
   step length   :     0.3145063 a0

........................................................................
.............................. CYCLE   14 ..............................
........................................................................

 iter      E             dE          RMSdq      gap      omega  full diag
   1    -11.7732465 -0.117732E+02  0.577E-01    4.67       0.0  T
   2    -11.7732496 -0.307742E-05  0.340E-01    4.67       1.0  T
   3    -11.7732248  0.247821E-04  0.564E-02    4.67       1.0  T
   4    -11.7732527 -0.279068E-04  0.549E-03    4.67       5.8  T
   5    -11.7732528 -0.112357E-07  0.304E-03    4.67      10.4  T
   6    -11.7732528 -0.267697E-07  0.154E-03    4.67      20.6  T
   7    -11.7732528 -0.811856E-08  0.199E-04    4.67     158.8  T
   8    -11.7732528 -0.862386E-10  0.627E-05    4.67     504.1  T
     SCC iter.                  ...        0 min,  0.000 sec
     gradient                   ...        0 min,  0.000 sec
 * total energy  :   -11.5452061 Eh     change       -0.2969738E-03 Eh
   gradient norm :     0.0149186 Eh/a0  converged?    E=F G=F D=F
   step length   :     0.4323743 a0

........................................................................
.............................. CYCLE   15 ..............................
........................................................................

 iter      E             dE          RMSdq      gap      omega  full diag
   1    -11.7713134 -0.117713E+02  0.793E-01    4.33       0.0  T
   2    -11.7713173 -0.384910E-05  0.467E-01    4.33       1.0  T
   3    -11.7711188  0.198476E-03  0.154E-01    4.32       1.0  T
   4    -11.7713354 -0.216551E-03  0.586E-03    4.33       5.4  T
   5    -11.7713354 -0.958858E-08  0.328E-03    4.33       9.6  T
   6    -11.7713354  0.456485E-08  0.179E-03    4.33      17.6  T
   7    -11.7713354 -0.205686E-07  0.219E-04    4.33     144.6  T
   8    -11.7713354 -0.617000E-10  0.800E-05    4.33     395.3  T
     SCC iter.                  ...        0 min,  0.000 sec
     gradient                   ...        0 min,  0.000 sec
 * total energy  :   -11.5457654 Eh     change       -0.5593059E-03 Eh
   gradient norm :     0.0283892 Eh/a0  converged?    E=F G=F D=F
   step length   :     0.5891755 a0

........................................................................
.............................. CYCLE   16 ..............................
........................................................................

 iter      E             dE          RMSdq      gap      omega  full diag
   1    -11.7860858 -0.117861E+02  0.355E-01    4.35       0.0  T
   2    -11.7860895 -0.375259E-05  0.210E-01    4.35       1.0  T
   3    -11.7860843  0.522378E-05  0.295E-02    4.35       1.1  T
   4    -11.7860907 -0.636439E-05  0.571E-03    4.35       5.5  T
   5    -11.7860908 -0.136191E-06  0.239E-03    4.35      13.2  T
   6    -11.7860908  0.262537E-08  0.702E-04    4.35      45.0  T
   7    -11.7860908 -0.350917E-08  0.236E-04    4.35     134.0  T
     SCC iter.                  ...        0 min,  0.000 sec
     gradient                   ...        0 min,  0.001 sec
 * total energy  :   -11.5464826 Eh     change       -0.7171101E-03 Eh
   gradient norm :     0.0244175 Eh/a0  converged?    E=F G=F D=F
   step length   :     0.3119918 a0

........................................................................
.............................. CYCLE   17 ..............................
........................................................................

 iter      E             dE          RMSdq      gap      omega  full diag
   1    -11.7663908 -0.117664E+02  0.117E+00    3.94       0.0  T
   2    -11.7664364 -0.455327E-04  0.690E-01    3.94       1.0  T
   3    -11.7661938  0.242601E-03  0.170E-01    3.94       1.0  T
   4    -11.7664630 -0.269276E-03  0.213E-02    3.94       1.5  T
   5    -11.7664649 -0.191632E-05  0.684E-03    3.94       4.6  T
   6    -11.7664649  0.652001E-07  0.381E-03    3.94       8.3  T
   7    -11.7664650 -0.100084E-06  0.758E-04    3.94      41.7  T
   8    -11.7664650 -0.132400E-08  0.316E-04    3.94     100.0  T
     SCC iter.                  ...        0 min,  0.001 sec
     gradient                   ...        0 min,  0.001 sec
 * total energy  :   -11.5461548 Eh     change        0.3277802E-03 Eh
   gradient norm :     0.0473757 Eh/a0  converged?    E=F G=F D=F
   step length   :     0.9303987 a0

........................................................................
.............................. CYCLE   18 ..............................
........................................................................

 iter      E             dE          RMSdq      gap      omega  full diag
   1    -11.7840329 -0.117840E+02  0.767E-01    4.08       0.0  T
   2    -11.7840580 -0.250241E-04  0.450E-01    4.08       1.0  T
   3    -11.7840104  0.475668E-04  0.805E-02    4.08       1.0  T
   4    -11.7840656 -0.552302E-04  0.154E-02    4.08       2.0  T
   5    -11.7840668 -0.117026E-05  0.584E-03    4.08       5.4  T
   6    -11.7840668 -0.146382E-07  0.236E-03    4.08      13.4  T
   7    -11.7840668 -0.747088E-09  0.118E-03    4.08      26.7  T
   8    -11.7840668 -0.931005E-08  0.244E-04    4.08     129.6  T
   9    -11.7840668 -0.563158E-10  0.245E-05    4.08    1290.7  T
     SCC iter.                  ...        0 min,  0.001 sec
     gradient                   ...        0 min,  0.000 sec
 * total energy  :   -11.5459715 Eh     change        0.1832347E-03 Eh
   gradient norm :     0.0561053 Eh/a0  converged?    E=F G=F D=F
   step length   :     0.5597042 a0

........................................................................
.............................. CYCLE   19 ..............................
........................................................................

 iter      E             dE          RMSdq      gap      omega  full diag
   1    -11.7809097 -0.117809E+02  0.364E-01    4.21       0.0  T
   2    -11.7809278 -0.180332E-04  0.210E-01    4.21       1.0  T
   3    -11.7808205  0.107245E-03  0.135E-01    4.21       1.0  T
   4    -11.7809470 -0.126524E-03  0.120E-02    4.21       2.6  T
   5    -11.7809471 -0.155722E-07  0.770E-03    4.21       4.1  T
   6    -11.7809472 -0.103848E-06  0.150E-03    4.21      21.1  T
   7    -11.7809472 -0.120766E-07  0.666E-04    4.21      47.4  T
   8    -11.7809472 -0.635019E-09  0.574E-05    4.21     550.8  T
     SCC iter.                  ...        0 min,  0.000 sec
     gradient                   ...        0 min,  0.000 sec
 * total energy  :   -11.5470847 Eh     change       -0.1113180E-02 Eh
   gradient norm :     0.0370888 Eh/a0  converged?    E=F G=F D=F
   step length   :     0.3114177 a0

........................................................................
.............................. CYCLE   20 ..............................
........................................................................

 iter      E             dE          RMSdq      gap      omega  full diag
   1    -11.7813408 -0.117813E+02  0.393E-01    4.12       0.0  T
   2    -11.7813524 -0.116402E-04  0.234E-01    4.12       1.0  T
   3    -11.7813147  0.377049E-04  0.685E-02    4.12       1.0  T
   4    -11.7813568 -0.420690E-04  0.858E-03    4.12       3.7  T
   5    -11.7813572 -0.382447E-06  0.366E-03    4.12       8.6  T
   6    -11.7813572 -0.148151E-07  0.111E-03    4.12      28.5  T
   7    -11.7813572 -0.473520E-09  0.205E-04    4.12     154.0  T
   8    -11.7813572 -0.253895E-10  0.143E-04    4.12     221.3  T
     SCC iter.                  ...        0 min,  0.000 sec
     gradient                   ...        0 min,  0.000 sec
 * total energy  :   -11.5483878 Eh     change       -0.1303040E-02 Eh
   gradient norm :     0.0197752 Eh/a0  converged?    E=F G=F D=F
   step length   :     0.3515435 a0

........................................................................
.............................. CYCLE   21 ..............................
........................................................................

 iter      E             dE          RMSdq      gap      omega  full diag
   1    -11.7726240 -0.117726E+02  0.465E-01    3.88       0.0  T
   2    -11.7726280 -0.400502E-05  0.274E-01    3.88       1.0  T
   3    -11.7725482  0.798400E-04  0.100E-01    3.88       1.0  T
   4    -11.7726363 -0.880765E-04  0.669E-03    3.88       4.7  T
   5    -11.7726363 -0.274017E-07  0.341E-03    3.88       9.3  T
   6    -11.7726363  0.125678E-08  0.150E-03    3.88      21.0  T
   7    -11.7726363 -0.186691E-07  0.535E-04    3.88      59.2  T
   8    -11.7726363 -0.550637E-09  0.909E-05    3.88     347.9  T
     SCC iter.                  ...        0 min,  0.000 sec
     gradient                   ...        0 min,  0.000 sec
 * total energy  :   -11.5483967 Eh     change       -0.8902353E-05 Eh
   gradient norm :     0.0238122 Eh/a0  converged?    E=F G=F D=F
   step length   :     0.3810060 a0

........................................................................
.............................. CYCLE   22 ..............................
........................................................................

 iter      E             dE          RMSdq      gap      omega  full diag
   1    -11.7798293 -0.117798E+02  0.217E-01    4.02       0.0  T
   2    -11.7798304 -0.109026E-05  0.127E-01    4.02       1.0  T
   3    -11.7798185  0.119790E-04  0.448E-02    4.02       1.0  T
   4    -11.7798319 -0.134074E-04  0.485E-03    4.02       6.5  T
   5    -11.7798319 -0.246466E-07  0.161E-03    4.02      19.7  T
   6    -11.7798319 -0.420104E-08  0.405E-04    4.02      78.0  T
   7    -11.7798319 -0.838618E-11  0.211E-04    4.02     149.6  T
     SCC iter.                  ...        0 min,  0.000 sec
     gradient                   ...        0 min,  0.000 sec
 * total energy  :   -11.5488616 Eh     change       -0.4649855E-03 Eh
   gradient norm :     0.0069052 Eh/a0  converged?    E=F G=F D=F
   step length   :     0.1674306 a0

........................................................................
.............................. CYCLE   23 ..............................
........................................................................

 iter      E             dE          RMSdq      gap      omega  full diag
   1    -11.7799640 -0.117800E+02  0.147E-01    4.00       0.0  T
   2    -11.7799643 -0.375931E-06  0.861E-02    4.00       1.0  T
   3    -11.7799548  0.949960E-05  0.353E-02    4.00       1.0  T
   4    -11.7799654 -0.105855E-04  0.175E-03    4.00      18.1  T
   5    -11.7799654 -0.686240E-09  0.682E-04    4.00      46.4  T
   6    -11.7799654 -0.229850E-09  0.202E-04    4.00     156.2  T
     SCC iter.                  ...        0 min,  0.000 sec
     gradient                   ...        0 min,  0.000 sec
 * total energy  :   -11.5489836 Eh     change       -0.1219896E-03 Eh
   gradient norm :     0.0075940 Eh/a0  converged?    E=F G=F D=F
   step length   :     0.1194021 a0

........................................................................
.............................. CYCLE   24 ..............................
........................................................................

 iter      E             dE          RMSdq      gap      omega  full diag
   1    -11.7794031 -0.117794E+02  0.228E-01    3.94       0.0  T
   2    -11.7794038 -0.742860E-06  0.134E-01    3.94       1.0  T
   3    -11.7793972  0.669299E-05  0.295E-02    3.94       1.1  T
   4    -11.7794047 -0.750292E-05  0.237E-03    3.94      13.3  T
   5    -11.7794047 -0.824820E-08  0.956E-04    3.94      33.1  T
   6    -11.7794047  0.823647E-09  0.535E-04    3.94      59.1  T
     SCC iter.                  ...        0 min,  0.000 sec
     gradient                   ...        0 min,  0.000 sec
 * total energy  :   -11.5490958 Eh     change       -0.1121942E-03 Eh
   gradient norm :     0.0078645 Eh/a0  converged?    E=F G=F D=F
   step length   :     0.1919425 a0

........................................................................
.............................. CYCLE   25 ..............................
........................................................................

 iter      E             dE          RMSdq      gap      omega  full diag
   1    -11.7819979 -0.117820E+02  0.118E-01    3.93       0.0  T
   2    -11.7819982 -0.279482E-06  0.693E-02    3.93       1.0  T
   3    -11.7819946  0.361118E-05  0.220E-02    3.93       1.4  T
   4    -11.7819986 -0.403348E-05  0.190E-03    3.93      16.6  T
   5    -11.7819986 -0.105105E-08  0.934E-04    3.93      33.9  T
   6    -11.7819987 -0.957218E-09  0.375E-04    3.93      84.2  T
     SCC iter.                  ...        0 min,  0.000 sec
     gradient                   ...        0 min,  0.001 sec
 * total energy  :   -11.5491394 Eh     change       -0.4357916E-04 Eh
   gradient norm :     0.0073471 Eh/a0  converged?    E=F G=F D=F
   step length   :     0.0932755 a0
 * RMSD in coord.:     1.1922725 a0     energy gain  -0.1633154E+00 Eh
 * calculating model hessian...
Using Lindh-Hessian (1995)
 Shifting diagonal of input Hessian by    1.0000000000000000E-002
 Lowest  eigenvalues of input Hessian
    0.000000    0.000000    0.000000    0.000000    0.000000    0.000000
    0.016422    0.020243    0.022572    0.032839    0.043721    0.061024
    0.071336    0.103256    0.107660    0.118745    0.125844    0.178127
 Highest eigenvalues
    0.999844    1.173060    1.419458    1.536729    1.952353    2.023192


........................................................................
.............................. CYCLE   26 ..............................
........................................................................

 iter      E             dE          RMSdq      gap      omega  full diag
   1    -11.7812424 -0.117812E+02  0.670E-02    3.91       0.0  T
   2    -11.7812425 -0.105607E-06  0.395E-02    3.91       1.0  T
   3    -11.7812423  0.204446E-06  0.611E-03    3.91       5.2  T
   4    -11.7812426 -0.253674E-06  0.926E-04    3.91      34.1  T
   5    -11.7812426 -0.544617E-09  0.431E-04    3.91      73.4  T
     SCC iter.                  ...        0 min,  0.000 sec
     gradient                   ...        0 min,  0.000 sec
 * total energy  :   -11.5492063 Eh     change       -0.6689851E-04 Eh
   gradient norm :     0.0016867 Eh/a0  converged?    E=F G=F D=F
   step length   :     0.0529556 a0

........................................................................
.............................. CYCLE   27 ..............................
........................................................................

 iter      E             dE          RMSdq      gap      omega  full diag
   1    -11.7809304 -0.117809E+02  0.783E-02    3.89       0.0  T
   2    -11.7809306 -0.109061E-06  0.461E-02    3.89       1.0  T
   3    -11.7809291  0.143819E-05  0.146E-02    3.89       2.2  T
   4    -11.7809307 -0.159952E-05  0.100E-03    3.89      31.5  T
   5    -11.7809307 -0.330097E-09  0.580E-04    3.89      54.5  T
   6    -11.7809307 -0.894733E-10  0.294E-04    3.89     107.4  T
     SCC iter.                  ...        0 min,  0.000 sec
     gradient                   ...        0 min,  0.001 sec
 * total energy  :   -11.5492315 Eh     change       -0.2518870E-04 Eh
   gradient norm :     0.0028593 Eh/a0  converged?    E=F G=F D=F
   step length   :     0.0693522 a0

........................................................................
.............................. CYCLE   28 ..............................
........................................................................

 iter      E             dE          RMSdq      gap      omega  full diag
   1    -11.7810417 -0.117810E+02  0.514E-02    3.88       0.0  T
   2    -11.7810418 -0.350129E-07  0.304E-02    3.88       1.0  T
   3    -11.7810412  0.524768E-06  0.791E-03    3.88       4.0  T
   4    -11.7810418 -0.581265E-06  0.489E-04    3.88      64.7  T
   5    -11.7810418 -0.100966E-09  0.256E-04    3.88     123.6  T
     SCC iter.                  ...        0 min,  0.000 sec
     gradient                   ...        0 min,  0.000 sec
 * total energy  :   -11.5492484 Eh     change       -0.1689306E-04 Eh
   gradient norm :     0.0025176 Eh/a0  converged?    E=F G=F D=F
   step length   :     0.0419480 a0

........................................................................
.............................. CYCLE   29 ..............................
........................................................................

 iter      E             dE          RMSdq      gap      omega  full diag
   1    -11.7811552 -0.117812E+02  0.105E-01    3.87       0.0  T
   2    -11.7811554 -0.140998E-06  0.619E-02    3.87       1.0  T
   3    -11.7811538  0.157826E-05  0.138E-02    3.87       2.3  T
   4    -11.7811555 -0.175367E-05  0.866E-04    3.87      36.5  T
   5    -11.7811555 -0.746089E-09  0.445E-04    3.87      71.1  T
   6    -11.7811555 -0.459028E-10  0.255E-04    3.87     124.1  T
     SCC iter.                  ...        0 min,  0.000 sec
     gradient                   ...        0 min,  0.000 sec
 * total energy  :   -11.5492698 Eh     change       -0.2146350E-04 Eh
   gradient norm :     0.0011349 Eh/a0  converged?    E=F G=F D=F
   step length   :     0.0814557 a0

........................................................................
.............................. CYCLE   30 ..............................
........................................................................

 iter      E             dE          RMSdq      gap      omega  full diag
   1    -11.7809163 -0.117809E+02  0.160E-01    3.85       0.0  T
   2    -11.7809166 -0.271133E-06  0.942E-02    3.85       1.0  T
   3    -11.7809136  0.305080E-05  0.191E-02    3.85       1.7  T
   4    -11.7809170 -0.340523E-05  0.124E-03    3.85      25.5  T
   5    -11.7809170 -0.154382E-08  0.531E-04    3.85      59.6  T
   6    -11.7809170  0.366764E-09  0.341E-04    3.85      92.7  T
     SCC iter.                  ...        0 min,  0.000 sec
     gradient                   ...        0 min,  0.000 sec
 * total energy  :   -11.5492870 Eh     change       -0.1712848E-04 Eh
   gradient norm :     0.0021109 Eh/a0  converged?    E=F G=F D=F
   step length   :     0.1193228 a0

........................................................................
.............................. CYCLE   31 ..............................
........................................................................

 iter      E             dE          RMSdq      gap      omega  full diag
   1    -11.7809350 -0.117809E+02  0.838E-02    3.83       0.0  T
   2    -11.7809350 -0.597549E-07  0.494E-02    3.83       1.0  T
   3    -11.7809344  0.642417E-06  0.875E-03    3.83       3.6  T
   4    -11.7809351 -0.723139E-06  0.651E-04    3.83      48.5  T
   5    -11.7809351 -0.334659E-09  0.141E-04    3.83     224.7  T
     SCC iter.                  ...        0 min,  0.000 sec
     gradient                   ...        0 min,  0.000 sec
 * total energy  :   -11.5492989 Eh     change       -0.1196500E-04 Eh
   gradient norm :     0.0016786 Eh/a0  converged?    E=F G=F D=F
   step length   :     0.0626875 a0

........................................................................
.............................. CYCLE   32 ..............................
........................................................................

 iter      E             dE          RMSdq      gap      omega  full diag
   1    -11.7805059 -0.117805E+02  0.244E-01    3.80       0.0  T
   2    -11.7805064 -0.522264E-06  0.144E-01    3.80       1.0  T
   3    -11.7805002  0.618818E-05  0.274E-02    3.80       1.2  T
   4    -11.7805071 -0.694024E-05  0.181E-03    3.80      17.5  T
   5    -11.7805072 -0.629022E-09  0.812E-04    3.80      38.9  T
   6    -11.7805072 -0.876128E-09  0.399E-04    3.80      79.4  T
     SCC iter.                  ...        0 min,  0.000 sec
     gradient                   ...        0 min,  0.000 sec
 * total energy  :   -11.5493063 Eh     change       -0.7312211E-05 Eh
   gradient norm :     0.0015859 Eh/a0  converged?    E=F G=F D=F
   step length   :     0.1861812 a0

........................................................................
.............................. CYCLE   33 ..............................
........................................................................

 iter      E             dE          RMSdq      gap      omega  full diag
   1    -11.7812436 -0.117812E+02  0.583E-02    3.81       0.0  T
   2    -11.7812437 -0.407255E-07  0.344E-02    3.81       1.0  T
   3    -11.7812433  0.379256E-06  0.687E-03    3.81       4.6  T
   4    -11.7812437 -0.427079E-06  0.562E-04    3.81      56.2  T
   5    -11.7812437 -0.165548E-09  0.267E-04    3.81     118.4  T
     SCC iter.                  ...        0 min,  0.000 sec
     gradient                   ...        0 min,  0.000 sec
 * total energy  :   -11.5493115 Eh     change       -0.5280879E-05 Eh
   gradient norm :     0.0007362 Eh/a0  converged?    E=F G=T D=F
   step length   :     0.0437689 a0

........................................................................
.............................. CYCLE   34 ..............................
........................................................................

 iter      E             dE          RMSdq      gap      omega  full diag
   1    -11.7810392 -0.117810E+02  0.102E-02    3.81       0.0  T
   2    -11.7810392 -0.430473E-08  0.607E-03    3.81       5.2  T
   3    -11.7810392  0.274601E-07  0.192E-03    3.81      16.4  T
   4    -11.7810392 -0.309822E-07  0.197E-04    3.81     160.6  T
   5    -11.7810392 -0.288196E-10  0.826E-05    3.81     382.9  T
     SCC iter.                  ...        0 min,  0.000 sec
     gradient                   ...        0 min,  0.000 sec
 * total energy  :   -11.5493125 Eh     change       -0.9859417E-06 Eh
   gradient norm :     0.0001641 Eh/a0  converged?    E=T G=T D=F
   step length   :     0.0100355 a0

   *** GEOMETRY OPTIMIZATION CONVERGED AFTER 34 CYCLES ***

------------------------------------------------------------------------
 total energy gain   :        -0.1634885 Eh     -102.5906 kcal/mol
 total RMSD          :         1.3234015 a0        0.7003 Å
 total power (kW/mol):       -12.6246792 (step)********** (real)
------------------------------------------------------------------------

 L-ANCopt (total)              0 d,  0 h,  0 min,  0.040 sec
 setup                          ...        0 min,  0.000 sec (  0.329%)
 model hessian                  ...        0 min,  0.001 sec (  1.451%)
 ANC generation                 ...        0 min,  0.000 sec (  0.324%)
 coordinate transformation      ...        0 min,  0.000 sec (  0.101%)
 Rational function              ...        0 min,  0.000 sec (  0.086%)
 singlepoint calculation        ...        0 min,  0.038 sec ( 95.198%)
 optimization log               ...        0 min,  0.001 sec (  1.500%)
 hessian update                 ...        0 min,  0.000 sec (  0.142%)

================
 final structure:
================
10
 xtb: 6.7.1 (unknown)
C           -0.59183049084105        1.47324792766398        0.05392810729603
C           -0.54281382259043       -1.55002305766202        0.19757298017086
C            0.40681024357619        0.67994606323407       -0.31564170244651
C            0.48191762157215       -0.75502781163134       -0.08725290206278
H           -1.45369227805013        1.10097391114177        0.58119373112080
H           -0.57809825728080        2.53045757989693       -0.14874596030042
H           -1.55084787088359       -1.17936332994176        0.27511264975173
H           -0.41125482829214       -2.60702427581660        0.35377655913531
H            1.26524465250280        1.10997935844611       -0.81709784278902
H            1.47206350251235       -1.18357128215310       -0.18329833015433

 Bond Distances (Angstroems)
 ---------------------------
C1-C3=1.3279         C1-H5=1.0768         C1-H6=1.0765         C2-C4=1.3279         C2-H7=1.0768         C2-H8=1.0765         
C3-C1=1.3279         C3-C4=1.4550         C3-H9=1.0832         C4-C2=1.3279         C4-C3=1.4550         C4-H10=1.0832        
H5-C1=1.0768         H6-C1=1.0765         H7-C2=1.0768         H8-C2=1.0765         H9-C3=1.0832         H10-C4=1.0832        
 C  H  Rav=1.0788 sigma=0.0031  Rmin=1.0765  Rmax=1.0832     6
 C  C  Rav=1.3702 sigma=0.0599  Rmin=1.3279  Rmax=1.4550     3

 selected bond angles (degree)
 --------------------
H5-C1-C3=122.12                H6-C1-C3=121.65                H6-C1-H5=116.23                H7-C2-C4=122.13                
H8-C2-C4=121.64                H8-C2-H7=116.23                C4-C3-C1=125.76                H9-C3-C1=119.19                
H9-C3-C4=115.04                C3-C4-C2=125.75                H10-C4-C2=119.18               H10-C4-C3=115.05               

 selected dihedral angles (degree)
 ---------------------------------
C4-C3-C1-H5=  0.63            C4-C3-C1-H6=179.92            H9-C3-C1-H5=181.87            H9-C3-C1-H6=  1.16            
C3-C4-C2-H7=  0.63            C3-C4-C2-H8=179.96            H10-C4-C2-H7=181.85           H10-C4-C2-H8=  1.17           
C2-C4-C3-C1= 18.69            C2-C4-C3-H9=197.49            H10-C4-C3-C1=197.51           H10-C4-C3-H9= 16.32           

 CMA Distance (Angstroems)
 ---------------------------
R(CMA):  1.9243
           -------------------------------------------------
          |                Final Singlepoint                |
           -------------------------------------------------

          ...................................................
          :                      SETUP                      :
          :.................................................:
          :  # basis functions                  22          :
          :  # atomic orbitals                  22          :
          :  # shells                           14          :
          :  # electrons                        22          :
          :  max. iterations                   250          :
          :  Hamiltonian                  GFN2-xTB          :
          :  restarted?                      false          :
          :  GBSA solvation                  false          :
          :  PC potential                    false          :
          :  electronic temp.          300.0000000     K    :
          :  accuracy                    1.0000000          :
          :  -> integral cutoff          0.2500000E+02      :
          :  -> integral neglect         0.1000000E-07      :
          :  -> SCF convergence          0.1000000E-05 Eh   :
          :  -> wf. convergence          0.1000000E-03 e    :
          :  Broyden damping             0.4000000          :
          :  net charge                          0          :
          :  unpaired electrons                  0          :
          ...................................................

 iter      E             dE          RMSdq      gap      omega  full diag
   1    -11.7810392 -0.117810E+02  0.481E-05    3.81       0.0  T
   2    -11.7810392 -0.234479E-12  0.376E-05    3.81     841.3  T
   3    -11.7810392 -0.109210E-10  0.136E-05    3.81    2330.2  T

   *** convergence criteria satisfied after 3 iterations ***

         #    Occupation            Energy/Eh            Energy/eV
      -------------------------------------------------------------
         1        2.0000           -0.6239656             -16.9790
       ...           ...                  ...                  ...
         5        2.0000           -0.5190899             -14.1252
         6        2.0000           -0.4823000             -13.1241
         7        2.0000           -0.4755395             -12.9401
         8        2.0000           -0.4466400             -12.1537
         9        2.0000           -0.4314669             -11.7408
        10        2.0000           -0.4284592             -11.6590
        11        2.0000           -0.3866545             -10.5214 (HOMO)
        12                         -0.2467593              -6.7147 (LUMO)
        13                         -0.1447851              -3.9398
        14                          0.1232256               3.3531
        15                          0.1238692               3.3707
        16                          0.1501947               4.0870
       ...                                ...                  ...
        22                          0.6789105              18.4741
      -------------------------------------------------------------
                  HL-Gap            0.1398952 Eh            3.8067 eV
             Fermi-level           -0.3167069 Eh           -8.6180 eV

 SCC (total)                   0 d,  0 h,  0 min,  0.001 sec
 SCC setup                      ...        0 min,  0.000 sec (  1.861%)
 Dispersion                     ...        0 min,  0.000 sec (  0.943%)
 classical contributions        ...        0 min,  0.000 sec (  0.521%)
 integral evaluation            ...        0 min,  0.000 sec ( 20.174%)
 iterations                     ...        0 min,  0.000 sec ( 20.397%)
 molecular gradient             ...        0 min,  0.001 sec ( 52.854%)
 printout                       ...        0 min,  0.000 sec (  2.804%)

         :::::::::::::::::::::::::::::::::::::::::::::::::::::
         ::                     SUMMARY                     ::
         :::::::::::::::::::::::::::::::::::::::::::::::::::::
         :: total energy             -11.549312522410 Eh    ::
         :: gradient norm              0.000163973836 Eh/a0 ::
         :: HOMO-LUMO gap              3.806743085917 eV    ::
         ::.................................................::
         :: SCC energy               -11.781037638465 Eh    ::
         :: -> isotropic ES            0.001649010480 Eh    ::
         :: -> anisotropic ES          0.002887941431 Eh    ::
         :: -> anisotropic XC          0.011744440036 Eh    ::
         :: -> dispersion             -0.004565563266 Eh    ::
         :: repulsion energy           0.231725116056 Eh    ::
         :: add. restraining           0.000000000000 Eh    ::
         :: total charge              -0.000000000000 e     ::
         :::::::::::::::::::::::::::::::::::::::::::::::::::::

           ------------------------------------------------- 
          |                Numerical Hessian                |
           ------------------------------------------------- 
step length          :   0.00500
SCC accuracy         :   0.30000
Hessian scale factor :   1.00000
frozen atoms in %    :   0.00000    0
RMS gradient         :   0.00016
estimated CPU  time      0.00 min
estimated wall time      0.00 min

writing file <hessian>.

 projected vibrational frequencies (cm⁻¹)
eigval :       -0.00    -0.00    -0.00    -0.00    -0.00     0.00
eigval :       94.39   291.63   460.19   564.86   734.15   883.33
eigval :      893.43   904.36  1010.59  1018.68  1066.27  1073.66
eigval :     1282.33  1327.97  1390.73  1427.32  1654.00  1689.48
eigval :     3043.48  3053.58  3106.42  3108.70  3128.84  3132.91
           -------------------------------------------------
          |                Property Printout                |
           -------------------------------------------------

    * Orbital Energies and Occupations

         #    Occupation            Energy/Eh            Energy/eV
      -------------------------------------------------------------
         1        2.0000           -0.6239656             -16.9790
         2        2.0000           -0.6026129             -16.3979
         3        2.0000           -0.5687253             -15.4758
         4        2.0000           -0.5285281             -14.3820
         5        2.0000           -0.5190899             -14.1252
         6        2.0000           -0.4823000             -13.1241
         7        2.0000           -0.4755395             -12.9401
         8        2.0000           -0.4466401             -12.1537
         9        2.0000           -0.4314669             -11.7408
        10        2.0000           -0.4284593             -11.6590
        11        2.0000           -0.3866545             -10.5214 (HOMO)
        12                         -0.2467593              -6.7147 (LUMO)
        13                         -0.1447851              -3.9398
        14                          0.1232255               3.3531
        15                          0.1238692               3.3707
        16                          0.1501947               4.0870
        17                          0.1821344               4.9561
        18                          0.2512008               6.8355
        19                          0.3513507               9.5607
        20                          0.4975733              13.5397
        21                          0.5196620              14.1407
        22                          0.6789105              18.4741
      -------------------------------------------------------------
                  HL-Gap            0.1398952 Eh            3.8067 eV
             Fermi-level           -0.3167069 Eh           -8.6180 eV

     #   Z          covCN         q      C6AA      α(0)
     1   6 C        2.838    -0.085    30.120     8.994
     2   6 C        2.838    -0.085    30.120     8.994
     3   6 C        2.891    -0.025    28.634     8.773
     4   6 C        2.891    -0.025    28.634     8.773
     5   1 H        0.926     0.042     2.425     2.435
     6   1 H        0.926     0.036     2.497     2.471
     7   1 H        0.926     0.042     2.425     2.435
     8   1 H        0.926     0.036     2.497     2.471
     9   1 H        0.925     0.032     2.556     2.500
    10   1 H        0.925     0.032     2.556     2.500

 Mol. C6AA /au·bohr⁶  :        969.815699
 Mol. C8AA /au·bohr⁸  :      22345.312279
 Mol. α(0) /au        :         50.346489


Wiberg/Mayer (AO) data.
largest (>0.10) Wiberg bond orders for each atom

 ---------------------------------------------------------------------------
     #   Z sym  total        # sym  WBO       # sym  WBO       # sym  WBO
 ---------------------------------------------------------------------------
     1   6 C    3.992 --     3 C    1.901     6 H    0.979     5 H    0.974
                             2 C    0.125
     2   6 C    3.992 --     4 C    1.901     8 H    0.979     7 H    0.974
                             1 C    0.125
     3   6 C    3.992 --     1 C    1.901     4 C    1.102     9 H    0.967
     4   6 C    3.992 --     2 C    1.901     3 C    1.102    10 H    0.967
     5   1 H    0.998 --     1 C    0.974
     6   1 H    0.999 --     1 C    0.979
     7   1 H    0.998 --     2 C    0.974
     8   1 H    0.999 --     2 C    0.979
     9   1 H    0.999 --     3 C    0.967
    10   1 H    0.999 --     4 C    0.967
 ---------------------------------------------------------------------------

Topologies differ in total number of bonds
Writing topology from bond orders to xtbtopo.mol

molecular dipole:
                 x           y           z       tot (Debye)
 q only:        0.001       0.000      -0.000
   full:        0.011       0.000      -0.003       0.029
molecular quadrupole (traceless):
                xx          xy          yy          xz          yz          zz
 q only:        0.408      -0.058       0.386      -0.434      -0.178      -0.794
  q+dip:        1.806      -0.254       1.432      -1.823      -0.784      -3.238
   full:        0.958      -0.140       0.752      -0.965      -0.430      -1.710

           -------------------------------------------------
          |                Geometry Summary                 |
           -------------------------------------------------

      molecular mass/u    :       54.0905881
   center of mass at/Å    :       -0.0780213      -0.0379781      -0.0324808
  moments of inertia/u·Å² :        0.2354998E+02   0.8673212E+02   0.1094963E+03
rotational constants/cm⁻¹ :        0.7158237E+00   0.1943644E+00   0.1539562E+00

 * 8 selected distances

     #   Z          #   Z                                           value/Å
     1   6 C        3   6 C                                       1.3278529
     2   6 C        4   6 C                                       1.3278622 (max)
Molecule has the following symmetry elements: (C2) 
It seems to be the C2 point group
     1   6 C        5   1 H                                       1.0767557
     1   6 C        6   1 H                                       1.0765490 (min)
     2   6 C        7   1 H                                       1.0768166
     2   6 C        8   1 H                                       1.0765496
     3   6 C        9   1 H                                       1.0831882
     4   6 C       10   1 H                                       1.0831728

 * 2 distinct bonds (by element types)

   Z      Z             #   av. dist./Å        max./Å        min./Å
   1 H    6 C           6     1.0788387     1.0831882     1.0765490
   6 C    6 C           2     1.3278576     1.3278622     1.3278529

           -------------------------------------------------
          |               Frequency Printout                |
           -------------------------------------------------
 projected vibrational frequencies (cm⁻¹)
eigval :       -0.00    -0.00    -0.00    -0.00    -0.00     0.00
eigval :       94.39   291.63   460.19   564.86   734.15   883.33
eigval :      893.43   904.36  1010.59  1018.68  1066.27  1073.66
eigval :     1282.33  1327.97  1390.73  1427.32  1654.00  1689.48
eigval :     3043.48  3053.58  3106.42  3108.70  3128.84  3132.91
 reduced masses (amu)
   1:  8.53   2: 10.44   3:  9.87   4:  9.80   5: 10.11   6:  9.79   7:  5.01   8:  8.43
   9:  3.60  10:  6.75  11:  6.73  12:  3.57  13:  4.06  14:  5.87  15:  1.81  16:  2.10
  17:  5.58  18:  5.87  19:  2.71  20:  3.62  21:  2.19  22:  2.84  23: 11.26  24: 10.88
  25:  1.77  26:  1.84  27:  1.52  28:  1.51  29:  2.11  30:  2.10
 IR intensities (km·mol⁻¹)
   1:  0.00   2:  0.01   3:  0.01   4:  0.00   5:  0.00   6:  0.01   7:  0.25   8:  0.07
   9:  2.23  10:  0.24  11:  0.01  12:  0.76  13: 23.97  14:  1.09  15: 29.09  16:  0.21
  17:  4.70  18:  0.19  19:  1.15  20:  0.25  21:  0.37  22:  0.00  23:  0.62  24:  0.73
  25: 17.02  26: 59.10  27:  8.33  28: 17.46  29: 59.30  30: 37.99
 Raman intensities (Ä⁴*amu⁻¹)
   1:  0.00   2:  0.00   3:  0.00   4:  0.00   5:  0.00   6:  0.00   7:  0.00   8:  0.00
   9:  0.00  10:  0.00  11:  0.00  12:  0.00  13:  0.00  14:  0.00  15:  0.00  16:  0.00
  17:  0.00  18:  0.00  19:  0.00  20:  0.00  21:  0.00  22:  0.00  23:  0.00  24:  0.00
  25:  0.00  26:  0.00  27:  0.00  28:  0.00  29:  0.00  30:  0.00
 output can be read by thermo (or use thermo option).
 writing <g98.out> molden fake output.
 recommended (thermochemical) frequency scaling factor: 1.0
           -------------------------------------------------
          |             Thermodynamic Functions             |
           -------------------------------------------------

c2  symmetry found (for desy threshold:  0.10E+00) used in thermo

          ...................................................
          :                      SETUP                      :
          :.................................................:
          :  # frequencies                          24      :
          :  # imaginary freq.                       0      :
          :  linear?                             false      :
          :  only rotor calc.                    false      :
          :  symmetry                               c2      :
          :  rotational number                       2      :
          :  scaling factor                  1.0000000      :
          :  rotor cutoff                   50.0000000 cm⁻¹ :
          :  imag. cutoff                  -20.0000000 cm⁻¹ :
          :.................................................:

    mode    ω/cm⁻¹     T·S(HO)/kcal·mol⁻¹    T·S(FR)/kcal·mol⁻¹   T·S(vib)
   ------------------------------------------------------------------------
       1     94.39    -1.06351 ( 92.70%)    -0.86761 (  7.30%)    -1.04921
       2    291.63    -0.43664 ( 99.91%)    -0.53391 (  0.09%)    -0.43672
   ------------------------------------------------------------------------

   temp. (K)  partition function   enthalpy   heat capacity  entropy
                                   cal/mol     cal/K/mol   cal/K/mol   J/K/mol
Note: The following floating-point exceptions are signalling: IEEE_UNDERFLOW_FLAG
normal termination of xtb
 298.15  VIB   4.82                 1282.890     10.225      7.379
         ROT  0.181E+05              888.752      2.981     22.459
         INT  0.870E+05             2171.642     13.206     29.838
         TR   0.385E+27             1481.254      4.968     37.869
         TOT                        3652.8961    18.1745    67.7073   283.2874

       T/K    H(0)-H(T)+PV         H(T)/Eh          T*S/Eh         G(T)/Eh
   ------------------------------------------------------------------------
    298.15    0.582126E-02    0.886128E-01    0.321699E-01    0.564429E-01
   ------------------------------------------------------------------------

         :::::::::::::::::::::::::::::::::::::::::::::::::::::
         ::                  THERMODYNAMIC                  ::
         :::::::::::::::::::::::::::::::::::::::::::::::::::::
         :: total free energy         -11.492869648080 Eh   ::
         ::.................................................::
         :: total energy              -11.549312522409 Eh   ::
         :: zero point energy           0.082791546797 Eh   ::
         :: G(RRHO) w/o ZPVE           -0.026348672468 Eh   ::
         :: G(RRHO) contrib.            0.056442874330 Eh   ::
         :::::::::::::::::::::::::::::::::::::::::::::::::::::

optimized geometry written to: xtbopt.xyz


           -------------------------------------------------
          | TOTAL ENERGY              -11.549312522409 Eh   |
          | TOTAL ENTHALPY            -11.460699715072 Eh   |
          | TOTAL FREE ENERGY         -11.492869648080 Eh   |
          | GRADIENT NORM               0.000163968942 Eh/α |
          | HOMO-LUMO GAP               3.806743054571 eV   |
           -------------------------------------------------

------------------------------------------------------------------------
 * finished run on 2026/09/04 at 18:33:07.918     
------------------------------------------------------------------------
 total:
 * wall-time:     0 d,  0 h,  0 min,  0.109 sec
 *  cpu-time:     0 d,  0 h,  0 min,  0.109 sec
 * ratio c/w:     0.998 speedup
 SCF:
 * wall-time:     0 d,  0 h,  0 min,  0.002 sec
 *  cpu-time:     0 d,  0 h,  0 min,  0.002 sec
 * ratio c/w:     1.000 speedup
 ANC optimizer:
 * wall-time:     0 d,  0 h,  0 min,  0.042 sec
 *  cpu-time:     0 d,  0 h,  0 min,  0.042 sec
 * ratio c/w:     0.999 speedup
 analytical hessian:
 * wall-time:     0 d,  0 h,  0 min,  0.063 sec
 *  cpu-time:     0 d,  0 h,  0 min,  0.062 sec
 * ratio c/w:     0.997 speedup

