10
 xtb: 6.7.1 (unknown)
C           -0.12720031281955        1.56235457777486        0.29739107286697
C           -0.47537598339578       -1.44580512207168        0.21537107233396
C            0.57307747630916        0.70615482637176       -0.45486936544423
C            0.53985836171804       -0.75300147972648       -0.31258981572891
H           -0.95030121309817        1.24646671138860        0.91718559999696
H           -0.00278701996877        2.62768748898148        0.17820422791907
H           -1.25442117963345       -0.97767707260347        0.79429256242162
H           -0.45792735124982       -2.52516460466428        0.21982795237199
H            1.40596634821498        1.08442816899008       -1.03514395479301
H            1.27399956906657       -1.28203143729539       -0.90741573089870
