10
 energy: -11.549312522410 gnorm: 0.000163973836 xtb: 6.7.1 (unknown)
C           -0.59182258868510        1.47325112058007        0.05392760187105
C           -0.54282124881038       -1.55001987064559        0.19757758024763
C            0.40681270195298        0.67994338227734       -0.31564430920949
C            0.48191336367995       -0.75503048721805       -0.08725326649983
H           -1.45368448458798        1.10098253700376        0.58119688389771
H           -0.57808552706258        2.53046034716583       -0.14874835883732
H           -1.55085308565083       -1.17935472954621        0.27512012160727
H           -0.41126724369892       -2.60702150500153        0.35378254479851
H            1.26524761209231        1.10997130753387       -0.81710419659924
H            1.47205666549212       -1.18357930975413       -0.18330140290234
