 Entering Gaussian System
 *********************************************
 Gaussian 98:
 frequency output generated by the xtb code
 *********************************************
                         Standard orientation:
 --------------------------------------------------------------------
  Center     Atomic     Atomic              Coordinates (Angstroms)
  Number     Number      Type              X           Y           Z
 --------------------------------------------------------------------
    1          6             0        0.138979    1.897139   -0.193064
    2          6             0       -0.180563   -1.736101    0.140662
    3          6             0       -0.297561    0.654715   -0.367891
    4          6             0        0.256585   -0.493960    0.315690
    5          1             0        0.946021    2.121253    0.485204
    6          1             0       -0.291536    2.733260   -0.717169
    7          1             0       -0.991033   -1.957839   -0.534659
    8          1             0        0.251191   -2.573232    0.661266
    9          1             0       -1.109469    0.453476   -1.054440
   10          1             0        1.071544   -0.293747    0.999385
 --------------------------------------------------------------------
     1 basis functions        1 primitive gaussians
     1 alpha electrons        1 beta electrons

 Harmonic frequencies (cm**-1), IR intensities (km*mol⁻¹),
 Raman scattering activities (A**4/amu), Raman depolarization ratios,
 reduced masses (AMU), force constants (mDyne/A) and normal coordinates:
                      1                      2                      3
                        a                      a                      a 
 Frequencies --   143.3672               296.5835               500.8311
 Red. masses --     8.3673                 7.5322                 1.9577
 Frc consts  --     0.0000                 0.0000                 0.0000
 IR Inten    --     0.1770                 0.1218                 2.2620
 Raman Activ --     0.0000                 0.0000                 0.0000
 Depolar     --     0.0000                 0.0000                 0.0000
 Atom AN      X      Y      Z        X      Y      Z        X      Y      Z
   1   6     0.25  -0.05  -0.28     0.23  -0.12   0.22     0.06   0.01  -0.07
   2   6     0.25  -0.05  -0.29     0.23  -0.12   0.23     0.06  -0.03  -0.06
   3   6    -0.28   0.05   0.32    -0.29   0.12  -0.28    -0.11   0.04   0.15
   4   6    -0.28   0.05   0.32    -0.29   0.12  -0.28    -0.13   0.01   0.13
   5   1     0.18  -0.03  -0.20     0.08  -0.25   0.12    -0.26   0.07   0.29
   6   1     0.10  -0.02  -0.12     0.21   0.10   0.17     0.29  -0.06  -0.34
   7   1     0.18  -0.03  -0.20     0.08  -0.25   0.12    -0.26   0.04   0.30
   8   1     0.10  -0.02  -0.12     0.21   0.10   0.17     0.31  -0.06  -0.34
   9   1    -0.17   0.03   0.19    -0.09   0.14  -0.10     0.20  -0.03  -0.22
  10   1    -0.17   0.03   0.19    -0.09   0.14  -0.10     0.19  -0.04  -0.22
                      4                      5                      6
                        a                      a                      a 
 Frequencies --   506.5237               741.3479               885.1621
 Red. masses --     8.6539                 6.8283                 4.1285
 Frc consts  --     0.0000                 0.0000                 0.0000
 IR Inten    --     0.0048                 0.0002                28.4156
 Raman Activ --     0.0000                 0.0000                 0.0000
 Depolar     --     0.0000                 0.0000                 0.0000
 Atom AN      X      Y      Z        X      Y      Z        X      Y      Z
   1   6    -0.00   0.44  -0.07    -0.08   0.02   0.09    -0.20   0.04   0.22
   2   6    -0.00  -0.44   0.08     0.08  -0.02  -0.09    -0.25   0.05   0.28
   3   6     0.23   0.26   0.15     0.33  -0.06  -0.37     0.09  -0.02  -0.11
   4   6    -0.22  -0.27  -0.16    -0.33   0.06   0.37     0.11  -0.02  -0.13
   5   1    -0.00   0.31  -0.08     0.23  -0.04  -0.26     0.18  -0.04  -0.21
   6   1    -0.13   0.02  -0.09    -0.21   0.04   0.24     0.28  -0.05  -0.31
   7   1     0.03  -0.31   0.05    -0.22   0.04   0.26     0.21  -0.04  -0.24
   8   1     0.11  -0.01   0.12     0.21  -0.04  -0.24     0.36  -0.07  -0.42
   9   1     0.05   0.14   0.04    -0.08   0.01   0.09    -0.08   0.02   0.09
  10   1    -0.07  -0.14  -0.02     0.08  -0.01  -0.09    -0.12   0.02   0.13
                      7                      8                      9
                        a                      a                      a 
 Frequencies --   889.0463               912.4783               973.8300
 Red. masses --     3.4043                 5.8998                 3.0078
 Frc consts  --     0.0000                 0.0000                 0.0000
 IR Inten    --     0.4544                 0.0003                 3.3445
 Raman Activ --     0.0000                 0.0000                 0.0000
 Depolar     --     0.0000                 0.0000                 0.0000
 Atom AN      X      Y      Z        X      Y      Z        X      Y      Z
   1   6    -0.23   0.05   0.26     0.11  -0.30   0.15    -0.17   0.12  -0.17
   2   6     0.18  -0.03  -0.20    -0.11   0.30  -0.15    -0.17   0.12  -0.17
   3   6     0.08  -0.01  -0.09     0.16  -0.21   0.17     0.10  -0.00   0.09
   4   6    -0.05   0.01   0.06    -0.16   0.21  -0.18     0.10  -0.00   0.09
   5   1     0.14  -0.03  -0.16    -0.00   0.28  -0.05    -0.01  -0.38   0.06
   6   1     0.40  -0.08  -0.45    -0.24  -0.34  -0.15     0.22   0.28   0.15
   7   1    -0.09   0.02   0.11     0.01  -0.28   0.05    -0.01  -0.38   0.06
   8   1    -0.32   0.06   0.36     0.24   0.34   0.15     0.22   0.28   0.15
   9   1    -0.16   0.03   0.18     0.04   0.01   0.04     0.04  -0.31   0.09
  10   1     0.13  -0.03  -0.15    -0.04  -0.01  -0.04     0.05  -0.31   0.09
                     10                     11                     12
                        a                      a                      a 
 Frequencies --   988.6241              1038.8588              1198.0088
 Red. masses --     2.2228                 1.8148                 7.5898
 Frc consts  --     0.0000                 0.0000                 0.0000
 IR Inten    --     0.0021                28.6088                 0.0000
 Raman Activ --     0.0000                 0.0000                 0.0000
 Depolar     --     0.0000                 0.0000                 0.0000
 Atom AN      X      Y      Z        X      Y      Z        X      Y      Z
   1   6     0.08  -0.02  -0.09     0.05  -0.01  -0.06    -0.11   0.03  -0.10
   2   6    -0.08   0.01   0.09     0.05  -0.01  -0.06     0.11  -0.03   0.10
   3   6     0.13  -0.03  -0.15     0.11  -0.02  -0.13     0.36  -0.15   0.35
   4   6    -0.13   0.03   0.15     0.12  -0.02  -0.13    -0.36   0.15  -0.35
   5   1    -0.29   0.06   0.33    -0.26   0.05   0.29    -0.01  -0.23   0.03
   6   1    -0.02   0.00   0.02     0.05  -0.01  -0.05     0.07   0.09   0.05
   7   1     0.29  -0.05  -0.33    -0.26   0.05   0.29     0.01   0.23  -0.03
   8   1     0.02  -0.00  -0.02     0.05  -0.01  -0.05    -0.07  -0.09  -0.05
   9   1    -0.33   0.06   0.37    -0.36   0.07   0.41     0.11  -0.31   0.15
  10   1     0.32  -0.06  -0.37    -0.37   0.07   0.41    -0.11   0.31  -0.15
                     13                     14                     15
                        a                      a                      a 
 Frequencies --  1263.4641              1292.8859              1397.4611
 Red. masses --     3.3602                 3.2375                 2.1341
 Frc consts  --     0.0000                 0.0000                 0.0000
 IR Inten    --     2.9974                 0.0001                 0.3061
 Raman Activ --     0.0000                 0.0000                 0.0000
 Depolar     --     0.0000                 0.0000                 0.0000
 Atom AN      X      Y      Z        X      Y      Z        X      Y      Z
   1   6     0.17   0.04   0.14    -0.17  -0.13  -0.13    -0.00  -0.00  -0.00
   2   6     0.16   0.04   0.14     0.17   0.13   0.13    -0.00  -0.00  -0.00
   3   6    -0.15   0.12  -0.15     0.15  -0.01   0.13     0.07   0.21   0.03
   4   6    -0.15   0.12  -0.15    -0.15   0.02  -0.13     0.07   0.21   0.03
   5   1     0.03   0.14   0.00    -0.03  -0.27   0.02     0.02  -0.46   0.10
   6   1    -0.09  -0.11  -0.06    -0.04  -0.04  -0.02    -0.29  -0.31  -0.21
   7   1     0.03   0.14   0.00     0.03   0.27  -0.02     0.02  -0.46   0.10
   8   1    -0.09  -0.11  -0.06     0.03   0.04   0.02    -0.30  -0.31  -0.21
   9   1    -0.00  -0.59   0.10     0.01   0.55  -0.09     0.03   0.04   0.02
  10   1    -0.00  -0.58   0.10    -0.01  -0.56   0.09     0.03   0.04   0.02
                     16                     17                     18
                        a                      a                      a 
 Frequencies --  1424.1110              1664.2244              1674.2541
 Red. masses --     2.9362                11.0177                11.1160
 Frc consts  --     0.0000                 0.0000                 0.0000
 IR Inten    --     0.0001                 1.5032                 0.0001
 Raman Activ --     0.0000                 0.0000                 0.0000
 Depolar     --     0.0000                 0.0000                 0.0000
 Atom AN      X      Y      Z        X      Y      Z        X      Y      Z
   1   6    -0.08  -0.12  -0.05    -0.15  -0.47  -0.05    -0.13  -0.39  -0.05
   2   6     0.08   0.12   0.05    -0.15  -0.46  -0.05     0.14   0.39   0.05
   3   6     0.04  -0.24   0.07     0.13   0.45   0.04     0.10   0.52   0.00
   4   6    -0.04   0.24  -0.07     0.12   0.44   0.04    -0.10  -0.53  -0.00
   5   1    -0.04   0.40  -0.10    -0.07   0.11  -0.08    -0.05   0.08  -0.06
   6   1     0.30   0.29   0.22     0.10   0.00   0.09     0.08   0.00   0.07
   7   1     0.04  -0.39   0.10    -0.06   0.11  -0.07     0.06  -0.08   0.06
   8   1    -0.30  -0.29  -0.22     0.10   0.00   0.09    -0.08   0.00  -0.07
   9   1    -0.00   0.14  -0.03     0.05  -0.03   0.05     0.05  -0.10   0.06
  10   1     0.00  -0.14   0.03     0.05  -0.03   0.05    -0.05   0.10  -0.06
                     19                     20                     21
                        a                      a                      a 
 Frequencies --  3053.4350              3063.5923              3098.9405
 Red. masses --     1.7655                 1.8560                 1.5565
 Frc consts  --     0.0000                 0.0000                 0.0000
 IR Inten    --     1.2050                53.4353                 4.8012
 Raman Activ --     0.0000                 0.0000                 0.0000
 Depolar     --     0.0000                 0.0000                 0.0000
 Atom AN      X      Y      Z        X      Y      Z        X      Y      Z
   1   6     0.01  -0.00   0.01     0.03  -0.00   0.03    -0.06  -0.07  -0.04
   2   6    -0.01   0.00  -0.01     0.03   0.00   0.02     0.12   0.14   0.08
   3   6    -0.12  -0.03  -0.10    -0.16  -0.05  -0.14     0.00   0.00   0.00
   4   6     0.16   0.05   0.13    -0.12  -0.04  -0.10     0.01  -0.01   0.01
   5   1    -0.02  -0.01  -0.01    -0.08  -0.02  -0.07     0.29   0.07   0.25
   6   1    -0.02   0.03  -0.02    -0.03   0.06  -0.04    -0.10   0.16  -0.11
   7   1     0.04   0.01   0.03    -0.08  -0.02  -0.06    -0.58  -0.14  -0.48
   8   1     0.02  -0.05   0.03    -0.02   0.05  -0.03     0.17  -0.29   0.20
   9   1     0.43   0.11   0.37     0.57   0.14   0.48    -0.01  -0.00  -0.01
  10   1    -0.58  -0.14  -0.49     0.42   0.11   0.36    -0.03  -0.01  -0.02
                     22                     23                     24
                        a                      a                      a 
 Frequencies --  3100.2094              3127.8615              3130.9370
 Red. masses --     1.5348                 2.0753                 2.0634
 Frc consts  --     0.0000                 0.0000                 0.0000
 IR Inten    --    35.7262                24.8186                76.5157
 Raman Activ --     0.0000                 0.0000                 0.0000
 Depolar     --     0.0000                 0.0000                 0.0000
 Atom AN      X      Y      Z        X      Y      Z        X      Y      Z
   1   6     0.10   0.15   0.06    -0.18   0.14  -0.19    -0.06   0.04  -0.06
   2   6     0.06   0.08   0.04     0.05  -0.05   0.05    -0.17   0.16  -0.18
   3   6     0.01  -0.01   0.01    -0.03  -0.01  -0.03    -0.02  -0.01  -0.01
   4   6     0.01  -0.00   0.01     0.00  -0.00   0.00    -0.03  -0.01  -0.03
   5   1    -0.54  -0.13  -0.46     0.35   0.12   0.29     0.12   0.04   0.10
   6   1     0.21  -0.36   0.25     0.30  -0.60   0.37     0.08  -0.17   0.10
   7   1    -0.29  -0.07  -0.24    -0.07  -0.03  -0.06     0.31   0.11   0.25
   8   1     0.10  -0.17   0.12    -0.10   0.20  -0.12     0.32  -0.63   0.39
   9   1    -0.04  -0.01  -0.03     0.08   0.02   0.07     0.05   0.01   0.05
  10   1    -0.04  -0.01  -0.03     0.00  -0.00   0.00     0.09   0.02   0.08
