      -----------------------------------------------------------      
     |                   =====================                   |     
     |                           x T B                           |     
     |                   =====================                   |     
     |                         S. Grimme                         |     
     |          Mulliken Center for Theoretical Chemistry        |     
     |                    University of Bonn                     |     
      -----------------------------------------------------------      

   * xtb version 6.7.1 (unknown) compiled by 'runner@Mac-1732184002186.local' on 2024-11-21

   xtb is free software: you can redistribute it and/or modify it under
   the terms of the GNU Lesser General Public License as published by
   the Free Software Foundation, either version 3 of the License, or
   (at your option) any later version.
   
   xtb is distributed in the hope that it will be useful,
   but WITHOUT ANY WARRANTY; without even the implied warranty of
   MERCHANTABILITY or FITNESS FOR A PARTICULAR PURPOSE.  See the
   GNU Lesser General Public License for more details.
   
   Cite this work as:
   * C. Bannwarth, E. Caldeweyher, S. Ehlert, A. Hansen, P. Pracht,
     J. Seibert, S. Spicher, S. Grimme, WIREs Comput. Mol. Sci., 2020, 11,
     e01493. DOI: 10.1002/wcms.1493
   
   for GFN2-xTB:
   * C. Bannwarth, S. Ehlert and S. Grimme., J. Chem. Theory Comput., 2019,
     15, 1652-1671. DOI: 10.1021/acs.jctc.8b01176
   for GFN1-xTB:
   * S. Grimme, C. Bannwarth, P. Shushkov, J. Chem. Theory Comput., 2017,
     13, 1989-2009. DOI: 10.1021/acs.jctc.7b00118
   for GFN0-xTB:
   * P. Pracht, E. Caldeweyher, S. Ehlert, S. Grimme, ChemRxiv, 2019, preprint.
     DOI: 10.26434/chemrxiv.8326202.v1
   for GFN-FF:
   * S. Spicher and S. Grimme, Angew. Chem. Int. Ed., 2020, 59, 15665-15673.
     DOI: 10.1002/anie.202004239
   
   for ALPB and GBSA implicit solvation:
   * S. Ehlert, M. Stahn, S. Spicher, S. Grimme, J. Chem. Theory Comput.,
     2021, 17, 4250-4261. DOI: 10.1021/acs.jctc.1c00471
   
   for ddCOSMO and CPCM-X implicit solvation:
   * M. Stahn, S. Ehlert, S. Grimme, J. Phys. Chem. A,
     2023, XX, XXXX-XXXX. DOI: 10.1021/acs.jpca.3c04382
   
   for DFT-D4:
   * E. Caldeweyher, C. Bannwarth and S. Grimme, J. Chem. Phys., 2017,
     147, 034112. DOI: 10.1063/1.4993215
   * E. Caldeweyher, S. Ehlert, A. Hansen, H. Neugebauer, S. Spicher,
     C. Bannwarth and S. Grimme, J. Chem. Phys., 2019, 150, 154122.
     DOI: 10.1063/1.5090222
   * E. Caldeweyher, J.-M. Mewes, S. Ehlert and S. Grimme, Phys. Chem. Chem. Phys.
     2020, 22, 8499-8512. DOI: 10.1039/D0CP00502A
   
   for sTDA-xTB:
   * S. Grimme and C. Bannwarth, J. Chem. Phys., 2016, 145, 054103.
     DOI: 10.1063/1.4959605
   
   in the mass-spec context:
   * V. Asgeirsson, C. Bauer and S. Grimme, Chem. Sci., 2017, 8, 4879.
     DOI: 10.1039/c7sc00601b
   * J. Koopman and S. Grimme, ACS Omega 2019, 4, 12, 15120-15133.
     DOI: 10.1021/acsomega.9b02011
   
   for metadynamics refer to:
   * S. Grimme, J. Chem. Theory Comput., 2019, 155, 2847-2862
     DOI: 10.1021/acs.jctc.9b00143
   
   for SPH calculations refer to:
   * S. Spicher and S. Grimme, J. Chem. Theory Comput., 2021, 17, 1701-1714
     DOI: 10.1021/acs.jctc.0c01306
   
   for ONIOM refer to:
   * C. Plett, A. Katbashev, S. Ehlert, S. Grimme, M. Bursch,
     Phys. Chem. Chem. Phys., 2023, 25, 17860-17868. DOI: 10.1039/D3CP02178E
   
   for DIPRO refer to:
   * J. Kohn, N. Gildemeister, S. Grimme, D. Fazzi, A. Hansen,
     J. Chem. Phys., 2023, just accepted.
   
   for PTB refer to:
   * S. Grimme, M. Mueller, A. Hansen, J. Chem. Phys., 2023, 158, 124111.
     DOI: 10.1063/5.0137838
   
   with help from (in alphabetical order)
   P. Atkinson, C. Bannwarth, F. Bohle, G. Brandenburg, E. Caldeweyher
   M. Checinski, S. Dohm, S. Ehlert, S. Ehrlich, I. Gerasimov, C. Hölzer
   A. Katbashev, J. Kohn, J. Koopman, C. Lavigne, S. Lehtola, F. März, M. Müller,
   F. Musil, H. Neugebauer, J. Pisarek, C. Plett, P. Pracht, F. Pultar,
   J. Seibert, P. Shushkov, S. Spicher, M. Stahn, M. Steiner, T. Strunk,
   J. Stückrath, T. Rose, and J. Unsleber
   
 * started run on 2026/09/04 at 18:32:20.295     
   ID    Z sym.   atoms
    1    6 C      1-4
    2    1 H      5-10

           -------------------------------------------------
          |                Calculation Setup                |
           -------------------------------------------------

          program call               : /opt/homebrew/bin/xtb temp_frame_opt.xyz --chrg 0 --uhf 0 --gfn 2 --acc 1.0 --etemp 300.0 --parallel 1 --ohess normal --input control.txt
          coordinate file            : temp_frame_opt.xyz
          omp threads                :                     1


           -------------------------------------------------
          |                 G F N 2 - x T B                 |
           -------------------------------------------------

        Reference                      10.1021/acs.jctc.8b01176
      * Hamiltonian:
        H0-scaling (s, p, d)           1.850000    2.230000    2.230000
        zeta-weighting                 0.500000
      * Dispersion:
        s8                             2.700000
        a1                             0.520000
        a2                             5.000000
        s9                             5.000000
      * Repulsion:
        kExp                           1.500000    1.000000
        rExp                           1.000000
      * Coulomb:
        alpha                          2.000000
        third order                    shell-resolved
        anisotropic                    true
        a3                             3.000000
        a5                             4.000000
        cn-shift                       1.200000
        cn-exp                         4.000000
        max-rad                        5.000000

q/qsh data taken from xtbrestart
CAMM data taken from xtbrestart

          ...................................................
          :                      SETUP                      :
          :.................................................:
          :  # basis functions                  22          :
          :  # atomic orbitals                  22          :
          :  # shells                           14          :
          :  # electrons                        22          :
          :  max. iterations                   250          :
          :  Hamiltonian                  GFN2-xTB          :
          :  restarted?                       true          :
          :  GBSA solvation                  false          :
          :  PC potential                    false          :
          :  electronic temp.          300.0000000     K    :
          :  accuracy                    1.0000000          :
          :  -> integral cutoff          0.2500000E+02      :
          :  -> integral neglect         0.1000000E-07      :
          :  -> SCF convergence          0.1000000E-05 Eh   :
          :  -> wf. convergence          0.1000000E-03 e    :
          :  Broyden damping             0.4000000          :
          :  net charge                          0          :
          :  unpaired electrons                  0          :
          ...................................................

 iter      E             dE          RMSdq      gap      omega  full diag
   1    -11.5912634 -0.115913E+02  0.319E+00    2.72       0.0  T
   2    -11.5903863  0.877059E-03  0.193E+00    2.73       1.0  T
   3    -11.5514197  0.389666E-01  0.200E+00    2.84       1.0  T
   4    -11.5926444 -0.412247E-01  0.142E-01    2.75       1.0  T
   5    -11.5927131 -0.687503E-04  0.711E-02    2.75       1.0  T
   6    -11.5927390 -0.258121E-04  0.325E-02    2.75       1.0  T
   7    -11.5927447 -0.575129E-05  0.964E-03    2.75       3.3  T
   8    -11.5927448 -0.132206E-06  0.295E-03    2.75      10.7  T
   9    -11.5927449 -0.607049E-07  0.671E-04    2.75      47.2  T
  10    -11.5927449 -0.201412E-09  0.162E-04    2.75     195.2  T

   *** convergence criteria satisfied after 10 iterations ***

         #    Occupation            Energy/Eh            Energy/eV
      -------------------------------------------------------------
         1        2.0000           -0.6333423             -17.2341
       ...           ...                  ...                  ...
         5        2.0000           -0.4939215             -13.4403
         6        2.0000           -0.4864716             -13.2376
         7        2.0000           -0.4538521             -12.3499
         8        2.0000           -0.4405117             -11.9869
         9        2.0000           -0.4287491             -11.6669
        10        2.0000           -0.4094410             -11.1415
        11        2.0000           -0.3778584             -10.2820 (HOMO)
        12                         -0.2768212              -7.5327 (LUMO)
        13                         -0.1761371              -4.7929
        14                         -0.0676679              -1.8413
        15                          0.0130504               0.3551
        16                          0.0770313               2.0961
       ...                                ...                  ...
        22                          0.7219339              19.6448
      -------------------------------------------------------------
                  HL-Gap            0.1010372 Eh            2.7494 eV
             Fermi-level           -0.3273398 Eh           -8.9074 eV

 SCC (total)                   0 d,  0 h,  0 min,  0.001 sec
 SCC setup                      ...        0 min,  0.000 sec (  2.303%)
 Dispersion                     ...        0 min,  0.000 sec (  1.251%)
 classical contributions        ...        0 min,  0.000 sec (  0.501%)
 integral evaluation            ...        0 min,  0.000 sec ( 13.733%)
 iterations                     ...        0 min,  0.001 sec ( 47.923%)
 molecular gradient             ...        0 min,  0.000 sec ( 31.020%)
 printout                       ...        0 min,  0.000 sec (  3.220%)

         :::::::::::::::::::::::::::::::::::::::::::::::::::::
         ::                     SUMMARY                     ::
         :::::::::::::::::::::::::::::::::::::::::::::::::::::
         :: total energy             -11.407778672083 Eh    ::
         :: gradient norm              0.241940794354 Eh/a0 ::
         :: HOMO-LUMO gap              2.749361582606 eV    ::
         ::.................................................::
         :: SCC energy               -11.592744513325 Eh    ::
         :: -> isotropic ES            0.001880267139 Eh    ::
         :: -> anisotropic ES          0.003768614477 Eh    ::
         :: -> anisotropic XC          0.015270202947 Eh    ::
         :: -> dispersion             -0.004447762805 Eh    ::
         :: repulsion energy           0.184965841242 Eh    ::
         :: add. restraining           0.000000000000 Eh    ::
         :: total charge               0.000000000000 e     ::
         :::::::::::::::::::::::::::::::::::::::::::::::::::::

      ----------------------------------------------------------- 
     |                       L-ANC optimizer                     |
      ----------------------------------------------------------- 
          low memory version by Sebastian Ehlert

          ...................................................
          :                      SETUP                      :
          :.................................................:
          :   energy convergence        0.5000000E-05 Eh    :
          :   grad. convergence         0.1000000E-02 Eh/a0 :
          :   optimization log               true           :
          :   writing optlog all                1     steps :
          :   Hessian reset                    25     steps :
          :   maximium step len.        1.0000000     a0    :
          :   LBFGS images                     25           :
          ...................................................
 * calculating model hessian...
Using Lindh-Hessian (1995)
 Shifting diagonal of input Hessian by    1.0000000000000000E-002
 Lowest  eigenvalues of input Hessian
    0.000000    0.000000    0.000000    0.000000    0.000000    0.000000
    0.012452    0.014142    0.021530    0.024466    0.030164    0.032737
    0.047820    0.055298    0.072623    0.075873    0.098556    0.104165
 Highest eigenvalues
    0.681513    0.859136    1.194811    1.412160    1.683003    2.057593


........................................................................
.............................. CYCLE    1 ..............................
........................................................................

 iter      E             dE          RMSdq      gap      omega  full diag
   1    -11.6880875 -0.116881E+02  0.989E-01    3.25       0.0  T
   2    -11.6881081 -0.205790E-04  0.611E-01    3.25       1.0  T
   3    -11.6857835  0.232460E-02  0.515E-01    3.25       1.0  T
   4    -11.6883182 -0.253475E-02  0.558E-02    3.24       1.0  T
   5    -11.6883237 -0.549114E-05  0.271E-02    3.24       1.2  T
   6    -11.6883289 -0.522467E-05  0.671E-03    3.24       4.7  T
   7    -11.6883290 -0.344246E-07  0.274E-03    3.24      11.6  T
   8    -11.6883290 -0.131734E-07  0.101E-03    3.24      31.3  T
   9    -11.6883290 -0.151133E-08  0.175E-04    3.24     181.2  T
  10    -11.6883290 -0.470397E-10  0.495E-05    3.24     638.3  T
     SCC iter.                  ...        0 min,  0.001 sec
     gradient                   ...        0 min,  0.000 sec
 * total energy  :   -11.4948957 Eh     change       -0.8711703E-01 Eh
   gradient norm :     0.1417110 Eh/a0  converged?    E=F G=F D=F
   step length   :     0.5718072 a0

........................................................................
.............................. CYCLE    2 ..............................
........................................................................

 iter      E             dE          RMSdq      gap      omega  full diag
   1    -11.7988067 -0.117988E+02  0.138E+00    4.04       0.0  T
   2    -11.7990130 -0.206284E-03  0.805E-01    4.04       1.0  T
   3    -11.7986282  0.384877E-03  0.262E-01    4.03       1.0  T
   4    -11.7991271 -0.498933E-03  0.474E-02    4.03       1.0  T
   5    -11.7991273 -0.172256E-06  0.293E-02    4.03       1.1  T
   6    -11.7991310 -0.376439E-05  0.114E-02    4.03       2.8  T
   7    -11.7991318 -0.774602E-06  0.281E-03    4.03      11.3  T
   8    -11.7991318 -0.372668E-08  0.538E-04    4.03      58.7  T
   9    -11.7991318 -0.147431E-08  0.129E-04    4.03     245.8  T
     SCC iter.                  ...        0 min,  0.000 sec
     gradient                   ...        0 min,  0.000 sec
 * total energy  :   -11.5186889 Eh     change       -0.2379320E-01 Eh
   gradient norm :     0.1958250 Eh/a0  converged?    E=F G=F D=F
   step length   :     1.4722725 a0

........................................................................
.............................. CYCLE    3 ..............................
........................................................................

 iter      E             dE          RMSdq      gap      omega  full diag
   1    -11.7353724 -0.117354E+02  0.144E+00    3.64       0.0  T
   2    -11.7355485 -0.176156E-03  0.858E-01    3.63       1.0  T
   3    -11.7337922  0.175635E-02  0.499E-01    3.64       1.0  T
   4    -11.7357640 -0.197181E-02  0.572E-02    3.63       1.0  T
   5    -11.7357677 -0.367167E-05  0.356E-02    3.63       1.0  T
   6    -11.7357778 -0.101057E-04  0.117E-02    3.63       2.7  T
   7    -11.7357780 -0.243055E-06  0.225E-03    3.63      14.0  T
   8    -11.7357780 -0.101494E-07  0.109E-03    3.63      29.0  T
   9    -11.7357780 -0.132627E-08  0.214E-04    3.63     147.5  T
  10    -11.7357780 -0.144368E-09  0.730E-05    3.63     433.4  T
     SCC iter.                  ...        0 min,  0.001 sec
     gradient                   ...        0 min,  0.000 sec
 * total energy  :   -11.5251448 Eh     change       -0.6455915E-02 Eh
   gradient norm :     0.1104178 Eh/a0  converged?    E=F G=F D=F
   step length   :     1.1965264 a0

........................................................................
.............................. CYCLE    4 ..............................
........................................................................

 iter      E             dE          RMSdq      gap      omega  full diag
   1    -11.7419024 -0.117419E+02  0.156E+00    3.42       0.0  T
   2    -11.7420689 -0.166467E-03  0.925E-01    3.41       1.0  T
   3    -11.7414424  0.626479E-03  0.269E-01    3.40       1.0  T
   4    -11.7421393 -0.696922E-03  0.336E-02    3.40       1.0  T
   5    -11.7421457 -0.642990E-05  0.161E-02    3.40       2.0  T
   6    -11.7421457 -0.278924E-08  0.110E-02    3.40       2.9  T
   7    -11.7421466 -0.883174E-06  0.462E-03    3.40       6.8  T
   8    -11.7421467 -0.668326E-07  0.566E-04    3.40      55.9  T
   9    -11.7421467 -0.261062E-09  0.109E-04    3.40     291.0  T
     SCC iter.                  ...        0 min,  0.001 sec
     gradient                   ...        0 min,  0.000 sec
 * total energy  :   -11.5401450 Eh     change       -0.1500015E-01 Eh
   gradient norm :     0.1004782 Eh/a0  converged?    E=F G=F D=F
   step length   :     1.1826416 a0

........................................................................
.............................. CYCLE    5 ..............................
........................................................................

 iter      E             dE          RMSdq      gap      omega  full diag
   1    -11.7817523 -0.117818E+02  0.716E-01    3.82       0.0  T
   2    -11.7817843 -0.319131E-04  0.427E-01    3.82       1.0  T
   3    -11.7817161  0.681974E-04  0.927E-02    3.81       1.0  T
   4    -11.7817900 -0.739050E-04  0.257E-02    3.81       1.2  T
   5    -11.7817941 -0.418329E-05  0.749E-03    3.81       4.2  T
   6    -11.7817941  0.692356E-08  0.233E-03    3.81      13.6  T
   7    -11.7817942 -0.292952E-07  0.809E-04    3.81      39.1  T
   8    -11.7817942 -0.331227E-08  0.204E-04    3.81     155.3  T
     SCC iter.                  ...        0 min,  0.000 sec
     gradient                   ...        0 min,  0.000 sec
 * total energy  :   -11.5489765 Eh     change       -0.8831514E-02 Eh
   gradient norm :     0.0364079 Eh/a0  converged?    E=F G=F D=F
   step length   :     0.5255299 a0

........................................................................
.............................. CYCLE    6 ..............................
........................................................................

 iter      E             dE          RMSdq      gap      omega  full diag
   1    -11.7805139 -0.117805E+02  0.381E-01    3.83       0.0  T
   2    -11.7805245 -0.106249E-04  0.226E-01    3.83       1.0  T
   3    -11.7804982  0.263002E-04  0.575E-02    3.83       1.0  T
   4    -11.7805281 -0.298665E-04  0.132E-02    3.83       2.4  T
   5    -11.7805290 -0.848521E-06  0.447E-03    3.83       7.1  T
   6    -11.7805290 -0.849044E-08  0.382E-03    3.83       8.3  T
   7    -11.7805290 -0.638823E-07  0.692E-04    3.83      45.7  T
   8    -11.7805290 -0.386178E-09  0.160E-04    3.83     197.3  T
     SCC iter.                  ...        0 min,  0.000 sec
     gradient                   ...        0 min,  0.000 sec
 * total energy  :   -11.5508698 Eh     change       -0.1893278E-02 Eh
   gradient norm :     0.0285050 Eh/a0  converged?    E=F G=F D=F
   step length   :     0.2610696 a0

........................................................................
.............................. CYCLE    7 ..............................
........................................................................

 iter      E             dE          RMSdq      gap      omega  full diag
   1    -11.7813586 -0.117814E+02  0.413E-01    3.78       0.0  T
   2    -11.7813685 -0.989752E-05  0.247E-01    3.78       1.0  T
   3    -11.7813494  0.190620E-04  0.526E-02    3.78       1.0  T
   4    -11.7813713 -0.219332E-04  0.110E-02    3.78       2.9  T
   5    -11.7813718 -0.501282E-06  0.697E-03    3.78       4.5  T
   6    -11.7813719 -0.882677E-07  0.245E-03    3.78      12.9  T
   7    -11.7813720 -0.389450E-07  0.126E-03    3.78      25.0  T
   8    -11.7813720 -0.618089E-08  0.210E-04    3.78     150.8  T
   9    -11.7813720 -0.397673E-10  0.196E-05    3.78    1612.3  T
     SCC iter.                  ...        0 min,  0.001 sec
     gradient                   ...        0 min,  0.000 sec
 * total energy  :   -11.5509945 Eh     change       -0.1247922E-03 Eh
   gradient norm :     0.0313491 Eh/a0  converged?    E=F G=F D=F
   step length   :     0.2307068 a0

........................................................................
.............................. CYCLE    8 ..............................
........................................................................

 iter      E             dE          RMSdq      gap      omega  full diag
   1    -11.7821276 -0.117821E+02  0.251E-01    3.79       0.0  T
   2    -11.7821321 -0.457899E-05  0.147E-01    3.79       1.0  T
   3    -11.7821044  0.277274E-04  0.642E-02    3.79       1.0  T
   4    -11.7821354 -0.309560E-04  0.762E-03    3.79       4.1  T
   5    -11.7821354 -0.248705E-07  0.488E-03    3.79       6.5  T
   6    -11.7821354 -0.339051E-07  0.243E-03    3.79      13.0  T
   7    -11.7821355 -0.343598E-07  0.519E-04    3.79      60.9  T
   8    -11.7821355 -0.475636E-09  0.150E-04    3.79     211.2  T
     SCC iter.                  ...        0 min,  0.000 sec
     gradient                   ...        0 min,  0.000 sec
 * total energy  :   -11.5520770 Eh     change       -0.1082444E-02 Eh
   gradient norm :     0.0091212 Eh/a0  converged?    E=F G=F D=F
   step length   :     0.1536871 a0

........................................................................
.............................. CYCLE    9 ..............................
........................................................................

 iter      E             dE          RMSdq      gap      omega  full diag
   1    -11.7856827 -0.117857E+02  0.253E-01    3.80       0.0  T
   2    -11.7856834 -0.726911E-06  0.150E-01    3.80       1.0  T
   3    -11.7856755  0.793884E-05  0.312E-02    3.80       1.0  T
   4    -11.7856844 -0.889654E-05  0.291E-03    3.80      10.9  T
   5    -11.7856844  0.591131E-08  0.247E-03    3.80      12.8  T
   6    -11.7856844 -0.298362E-07  0.318E-04    3.80      99.5  T
   7    -11.7856844 -0.149234E-09  0.110E-04    3.80     288.5  T
     SCC iter.                  ...        0 min,  0.000 sec
     gradient                   ...        0 min,  0.000 sec
 * total energy  :   -11.5522296 Eh     change       -0.1525934E-03 Eh
   gradient norm :     0.0146381 Eh/a0  converged?    E=F G=F D=F
   step length   :     0.1576774 a0

........................................................................
.............................. CYCLE   10 ..............................
........................................................................

 iter      E             dE          RMSdq      gap      omega  full diag
   1    -11.7855224 -0.117855E+02  0.956E-02    3.80       0.0  T
   2    -11.7855226 -0.221764E-06  0.564E-02    3.80       1.0  T
   3    -11.7855206  0.199647E-05  0.161E-02    3.80       2.0  T
   4    -11.7855228 -0.223041E-05  0.181E-03    3.80      17.4  T
   5    -11.7855228  0.370496E-08  0.124E-03    3.80      25.6  T
   6    -11.7855228 -0.106700E-07  0.242E-04    3.80     130.9  T
   7    -11.7855228 -0.521307E-10  0.741E-05    3.80     426.6  T
     SCC iter.                  ...        0 min,  0.000 sec
     gradient                   ...        0 min,  0.000 sec
 * total energy  :   -11.5524798 Eh     change       -0.2501972E-03 Eh
   gradient norm :     0.0064236 Eh/a0  converged?    E=F G=F D=F
   step length   :     0.0773399 a0

........................................................................
.............................. CYCLE   11 ..............................
........................................................................

 iter      E             dE          RMSdq      gap      omega  full diag
   1    -11.7841064 -0.117841E+02  0.170E-01    3.79       0.0  T
   2    -11.7841067 -0.302917E-06  0.100E-01    3.79       1.0  T
   3    -11.7841047  0.203846E-05  0.156E-02    3.79       2.0  T
   4    -11.7841070 -0.232852E-05  0.195E-03    3.79      16.2  T
   5    -11.7841070 -0.478416E-08  0.131E-03    3.79      24.2  T
   6    -11.7841070 -0.552936E-08  0.395E-04    3.79      80.1  T
   7    -11.7841070 -0.838368E-09  0.479E-05    3.79     660.0  T
     SCC iter.                  ...        0 min,  0.000 sec
     gradient                   ...        0 min,  0.000 sec
 * total energy  :   -11.5525801 Eh     change       -0.1003434E-03 Eh
   gradient norm :     0.0051319 Eh/a0  converged?    E=F G=F D=F
   step length   :     0.1181272 a0

........................................................................
.............................. CYCLE   12 ..............................
........................................................................

 iter      E             dE          RMSdq      gap      omega  full diag
   1    -11.7848666 -0.117849E+02  0.747E-02    3.78       0.0  T
   2    -11.7848667 -0.146310E-06  0.440E-02    3.78       1.0  T
   3    -11.7848667  0.858971E-07  0.413E-03    3.78       7.7  T
   4    -11.7848668 -0.114728E-06  0.143E-03    3.78      22.2  T
   5    -11.7848668 -0.130668E-07  0.484E-04    3.78      65.3  T
   6    -11.7848668 -0.369544E-09  0.212E-04    3.78     149.0  T
     SCC iter.                  ...        0 min,  0.000 sec
     gradient                   ...        0 min,  0.000 sec
 * total energy  :   -11.5526317 Eh     change       -0.5157178E-04 Eh
   gradient norm :     0.0026964 Eh/a0  converged?    E=F G=F D=F
   step length   :     0.0588748 a0

........................................................................
.............................. CYCLE   13 ..............................
........................................................................

 iter      E             dE          RMSdq      gap      omega  full diag
   1    -11.7851603 -0.117852E+02  0.102E-01    3.79       0.0  T
   2    -11.7851604 -0.886300E-07  0.602E-02    3.79       1.0  T
   3    -11.7851604  0.618942E-07  0.370E-03    3.79       8.5  T
   4    -11.7851605 -0.113080E-06  0.803E-04    3.79      39.4  T
   5    -11.7851605  0.110405E-08  0.512E-04    3.79      61.8  T
     SCC iter.                  ...        0 min,  0.000 sec
     gradient                   ...        0 min,  0.000 sec
 * total energy  :   -11.5526535 Eh     change       -0.2177734E-04 Eh
   gradient norm :     0.0032310 Eh/a0  converged?    E=F G=F D=F
   step length   :     0.0736718 a0

........................................................................
.............................. CYCLE   14 ..............................
........................................................................

 iter      E             dE          RMSdq      gap      omega  full diag
   1    -11.7849333 -0.117849E+02  0.560E-02    3.79       0.0  T
   2    -11.7849333 -0.296493E-07  0.329E-02    3.79       1.0  T
   3    -11.7849333  0.213247E-07  0.198E-03    3.79      16.0  T
   4    -11.7849333 -0.367258E-07  0.527E-04    3.79      60.0  T
   5    -11.7849333 -0.338787E-09  0.282E-04    3.79     112.2  T
     SCC iter.                  ...        0 min,  0.000 sec
     gradient                   ...        0 min,  0.000 sec
 * total energy  :   -11.5526747 Eh     change       -0.2124636E-04 Eh
   gradient norm :     0.0021221 Eh/a0  converged?    E=F G=F D=F
   step length   :     0.0441152 a0

........................................................................
.............................. CYCLE   15 ..............................
........................................................................

 iter      E             dE          RMSdq      gap      omega  full diag
   1    -11.7849209 -0.117849E+02  0.913E-02    3.79       0.0  T
   2    -11.7849210 -0.749484E-07  0.537E-02    3.79       1.0  T
   3    -11.7849208  0.114662E-06  0.407E-03    3.79       7.8  T
   4    -11.7849210 -0.163743E-06  0.580E-04    3.79      54.5  T
   5    -11.7849210  0.149772E-09  0.300E-04    3.79     105.3  T
     SCC iter.                  ...        0 min,  0.000 sec
     gradient                   ...        0 min,  0.000 sec
 * total energy  :   -11.5526952 Eh     change       -0.2051024E-04 Eh
   gradient norm :     0.0016728 Eh/a0  converged?    E=F G=F D=F
   step length   :     0.0765009 a0

........................................................................
.............................. CYCLE   16 ..............................
........................................................................

 iter      E             dE          RMSdq      gap      omega  full diag
   1    -11.7846645 -0.117847E+02  0.685E-02    3.78       0.0  T
   2    -11.7846646 -0.432037E-07  0.403E-02    3.78       1.0  T
   3    -11.7846646 -0.274273E-08  0.149E-03    3.79      21.2  T
   4    -11.7846646 -0.189431E-07  0.540E-04    3.79      58.6  T
   5    -11.7846646 -0.487992E-09  0.206E-04    3.79     153.3  T
     SCC iter.                  ...        0 min,  0.000 sec
     gradient                   ...        0 min,  0.000 sec
 * total energy  :   -11.5527002 Eh     change       -0.5018346E-05 Eh
   gradient norm :     0.0010050 Eh/a0  converged?    E=F G=F D=F
   step length   :     0.0563692 a0

........................................................................
.............................. CYCLE   17 ..............................
........................................................................

 iter      E             dE          RMSdq      gap      omega  full diag
   1    -11.7852037 -0.117852E+02  0.158E-02    3.78       0.0  T
   2    -11.7852037 -0.692523E-08  0.931E-03    3.78       3.4  T
   3    -11.7852036  0.166802E-07  0.142E-03    3.78      22.2  T
   4    -11.7852037 -0.198844E-07  0.247E-04    3.78     127.8  T
   5    -11.7852037 -0.217325E-09  0.104E-04    3.78     304.1  T
     SCC iter.                  ...        0 min,  0.000 sec
     gradient                   ...        0 min,  0.000 sec
 * total energy  :   -11.5527014 Eh     change       -0.1117882E-05 Eh
   gradient norm :     0.0006405 Eh/a0  converged?    E=T G=T D=F
   step length   :     0.0129159 a0

   *** GEOMETRY OPTIMIZATION CONVERGED AFTER 17 CYCLES ***

------------------------------------------------------------------------
 total energy gain   :        -0.1449227 Eh      -90.9404 kcal/mol
 total RMSD          :         0.6090970 a0        0.3223 Å
 total power (kW/mol):       -22.3820282 (step)********** (real)
------------------------------------------------------------------------

 L-ANCopt (total)              0 d,  0 h,  0 min,  0.019 sec
 setup                          ...        0 min,  0.000 sec (  0.608%)
 model hessian                  ...        0 min,  0.000 sec (  1.186%)
 ANC generation                 ...        0 min,  0.000 sec (  0.425%)
 coordinate transformation      ...        0 min,  0.000 sec (  0.095%)
 Rational function              ...        0 min,  0.000 sec (  0.118%)
 singlepoint calculation        ...        0 min,  0.018 sec ( 95.181%)
 optimization log               ...        0 min,  0.000 sec (  1.417%)
 hessian update                 ...        0 min,  0.000 sec (  0.107%)

================
 final structure:
================
10
 xtb: 6.7.1 (unknown)
C            0.13896965590156        1.89714032745977       -0.19306046313539
C           -0.18055398893481       -1.73610220460869        0.14065803100206
C           -0.29756344129846        0.65471391395076       -0.36789123050403
C            0.25658625350802       -0.49395965024838        0.31568966115009
H            0.94600813834303        2.12125703651743        0.48521073547612
H           -0.29154803945077        2.73325916401335       -0.71716490409305
H           -0.99102072037863       -1.95784339113990       -0.53466612843750
H            0.25120247250584       -2.57323177279092        0.66126200780835
H           -1.10946726051514        0.45347237157026       -1.05444340739064
H            1.07154224269160       -0.29374295251884        0.99938820844372

 Bond Distances (Angstroems)
 ---------------------------
C1-C3=1.3284         C1-H5=1.0778         C1-H6=1.0766         C2-C4=1.3284         C2-H7=1.0780         C2-H8=1.0762         
C3-C1=1.3284         C3-C4=1.4470         C3-H9=1.0821         C4-C2=1.3284         C4-C3=1.4470         C4-H10=1.0824        
H5-C1=1.0778         H6-C1=1.0766         H7-C2=1.0780         H8-C2=1.0762         H9-C3=1.0821         H10-C4=1.0824        
 C  H  Rav=1.0789 sigma=0.0025  Rmin=1.0762  Rmax=1.0824     6
 C  C  Rav=1.3679 sigma=0.0559  Rmin=1.3284  Rmax=1.4470     3

 selected bond angles (degree)
 --------------------
H5-C1-C3=121.56                H6-C1-C3=122.06                H6-C1-H5=116.38                H7-C2-C4=121.49                
H8-C2-C4=122.11                H8-C2-H7=116.40                C4-C3-C1=123.67                H9-C3-C1=120.26                
H9-C3-C4=116.07                C3-C4-C2=123.64                H10-C4-C2=120.26               H10-C4-C3=116.10               

 selected dihedral angles (degree)
 ---------------------------------
C4-C3-C1-H5=359.81            C4-C3-C1-H6=179.88            H9-C3-C1-H5=180.00            H9-C3-C1-H6=  0.07            
C3-C4-C2-H7=359.91            C3-C4-C2-H8=179.90            H10-C4-C2-H7=179.96           H10-C4-C2-H8=359.96           
C2-C4-C3-C1=179.99            C2-C4-C3-H9=359.80            H10-C4-C3-C1=359.93           H10-C4-C3-H9=179.75           
           -------------------------------------------------
          |                Final Singlepoint                |
           -------------------------------------------------

          ...................................................
          :                      SETUP                      :
          :.................................................:
          :  # basis functions                  22          :
          :  # atomic orbitals                  22          :
          :  # shells                           14          :
          :  # electrons                        22          :
          :  max. iterations                   250          :
          :  Hamiltonian                  GFN2-xTB          :
          :  restarted?                      false          :
          :  GBSA solvation                  false          :
          :  PC potential                    false          :
          :  electronic temp.          300.0000000     K    :
          :  accuracy                    1.0000000          :
          :  -> integral cutoff          0.2500000E+02      :
          :  -> integral neglect         0.1000000E-07      :
          :  -> SCF convergence          0.1000000E-05 Eh   :
          :  -> wf. convergence          0.1000000E-03 e    :
          :  Broyden damping             0.4000000          :
          :  net charge                          0          :
          :  unpaired electrons                  0          :
          ...................................................

 iter      E             dE          RMSdq      gap      omega  full diag
   1    -11.7852037 -0.117852E+02  0.687E-05    3.78       0.0  T
   2    -11.7852037  0.577849E-11  0.645E-05    3.78     490.3  T
   3    -11.7852037 -0.309015E-10  0.217E-05    3.78    1457.0  T

   *** convergence criteria satisfied after 3 iterations ***

         #    Occupation            Energy/Eh            Energy/eV
      -------------------------------------------------------------
         1        2.0000           -0.6245595             -16.9951
       ...           ...                  ...                  ...
         5        2.0000           -0.5005192             -13.6198
         6        2.0000           -0.4998018             -13.6003
         7        2.0000           -0.4530878             -12.3291
         8        2.0000           -0.4508827             -12.2691
         9        2.0000           -0.4493914             -12.2286
        10        2.0000           -0.4255732             -11.5804
        11        2.0000           -0.3868889             -10.5278 (HOMO)
        12                         -0.2478025              -6.7430 (LUMO)
        13                         -0.1417037              -3.8560
        14                          0.1161578               3.1608
        15                          0.1271944               3.4611
        16                          0.1745570               4.7499
       ...                                ...                  ...
        22                          0.6752901              18.3756
      -------------------------------------------------------------
                  HL-Gap            0.1390864 Eh            3.7847 eV
             Fermi-level           -0.3173457 Eh           -8.6354 eV

 SCC (total)                   0 d,  0 h,  0 min,  0.001 sec
 SCC setup                      ...        0 min,  0.000 sec (  1.944%)
 Dispersion                     ...        0 min,  0.000 sec (  1.040%)
 classical contributions        ...        0 min,  0.000 sec (  0.575%)
 integral evaluation            ...        0 min,  0.000 sec ( 19.190%)
 iterations                     ...        0 min,  0.000 sec ( 21.325%)
 molecular gradient             ...        0 min,  0.000 sec ( 52.696%)
 printout                       ...        0 min,  0.000 sec (  2.984%)

         :::::::::::::::::::::::::::::::::::::::::::::::::::::
         ::                     SUMMARY                     ::
         :::::::::::::::::::::::::::::::::::::::::::::::::::::
         :: total energy             -11.552701365279 Eh    ::
         :: gradient norm              0.000641246355 Eh/a0 ::
         :: HOMO-LUMO gap              3.784733087352 eV    ::
         ::.................................................::
         :: SCC energy               -11.785203819546 Eh    ::
         :: -> isotropic ES            0.001642657405 Eh    ::
         :: -> anisotropic ES          0.002611772568 Eh    ::
         :: -> anisotropic XC          0.011774029762 Eh    ::
         :: -> dispersion             -0.004408156183 Eh    ::
         :: repulsion energy           0.232502454268 Eh    ::
         :: add. restraining           0.000000000000 Eh    ::
         :: total charge              -0.000000000000 e     ::
         :::::::::::::::::::::::::::::::::::::::::::::::::::::

           ------------------------------------------------- 
          |                Numerical Hessian                |
           ------------------------------------------------- 
step length          :   0.00500
SCC accuracy         :   0.30000
Hessian scale factor :   1.00000
frozen atoms in %    :   0.00000    0
RMS gradient         :   0.00064
estimated CPU  time      0.00 min
estimated wall time      0.00 min

writing file <hessian>.

 projected vibrational frequencies (cm⁻¹)
eigval :       -0.00    -0.00    -0.00     0.00     0.00     0.00
eigval :      143.37   296.58   500.83   506.52   741.35   885.16
eigval :      889.05   912.48   973.83   988.62  1038.86  1198.01
eigval :     1263.46  1292.89  1397.46  1424.11  1664.22  1674.25
eigval :     3053.44  3063.59  3098.94  3100.21  3127.86  3130.94
           -------------------------------------------------
          |                Property Printout                |
           -------------------------------------------------

    * Orbital Energies and Occupations

         #    Occupation            Energy/Eh            Energy/eV
      -------------------------------------------------------------
         1        2.0000           -0.6245594             -16.9951
         2        2.0000           -0.6062582             -16.4971
         3        2.0000           -0.5610647             -15.2673
         4        2.0000           -0.5437286             -14.7956
         5        2.0000           -0.5005191             -13.6198
         6        2.0000           -0.4998018             -13.6003
         7        2.0000           -0.4530877             -12.3291
         8        2.0000           -0.4508827             -12.2691
         9        2.0000           -0.4493914             -12.2286
        10        2.0000           -0.4255731             -11.5804
        11        2.0000           -0.3868889             -10.5278 (HOMO)
        12                         -0.2478025              -6.7430 (LUMO)
        13                         -0.1417036              -3.8560
        14                          0.1161578               3.1608
        15                          0.1271944               3.4611
        16                          0.1745570               4.7499
        17                          0.2009192               5.4673
        18                          0.2120681               5.7707
        19                          0.3727537              10.1431
        20                          0.4491134              12.2210
        21                          0.5526981              15.0397
        22                          0.6752902              18.3756
      -------------------------------------------------------------
                  HL-Gap            0.1390864 Eh            3.7847 eV
             Fermi-level           -0.3173457 Eh           -8.6354 eV

     #   Z          covCN         q      C6AA      α(0)
     1   6 C        2.841    -0.086    30.145     8.998
     2   6 C        2.841    -0.086    30.146     8.998
     3   6 C        2.894    -0.025    28.638     8.774
     4   6 C        2.894    -0.025    28.637     8.774
     5   1 H        0.926     0.039     2.459     2.452
     6   1 H        0.926     0.036     2.503     2.474
     7   1 H        0.926     0.039     2.460     2.452
     8   1 H        0.926     0.036     2.502     2.473
     9   1 H        0.925     0.036     2.499     2.472
    10   1 H        0.925     0.036     2.500     2.472

 Mol. C6AA /au·bohr⁶  :        969.512051
 Mol. C8AA /au·bohr⁸  :      22343.305808
 Mol. α(0) /au        :         50.340222


Wiberg/Mayer (AO) data.
largest (>0.10) Wiberg bond orders for each atom

 ---------------------------------------------------------------------------
     #   Z sym  total        # sym  WBO       # sym  WBO       # sym  WBO
 ---------------------------------------------------------------------------
     1   6 C    3.992 --     3 C    1.888     6 H    0.979     5 H    0.976
                             2 C    0.145
     2   6 C    3.992 --     4 C    1.888     8 H    0.979     7 H    0.976
                             1 C    0.145
     3   6 C    3.992 --     1 C    1.888     4 C    1.118     9 H    0.964
     4   6 C    3.992 --     2 C    1.888     3 C    1.118    10 H    0.964
     5   1 H    0.998 --     1 C    0.976
     6   1 H    0.998 --     1 C    0.979
     7   1 H    0.998 --     2 C    0.976
     8   1 H    0.998 --     2 C    0.979
     9   1 H    0.999 --     3 C    0.964
    10   1 H    0.999 --     4 C    0.964
 ---------------------------------------------------------------------------

Topologies differ in total number of bonds
Writing topology from bond orders to xtbtopo.mol

molecular dipole:
                 x           y           z       tot (Debye)
 q only:        0.000      -0.000      -0.000
   full:        0.000      -0.000      -0.000       0.001
molecular quadrupole (traceless):
                xx          xy          yy          xz          yz          zz
 q only:       -0.117       0.170       0.430       0.713      -0.085      -0.313
  q+dip:       -0.466       0.832       1.809       3.069      -0.265      -1.343
   full:       -0.162       0.371       0.784       1.683      -0.166      -0.622

           -------------------------------------------------
          |                Geometry Summary                 |
           -------------------------------------------------

      molecular mass/u    :       54.0905881
   center of mass at/Å    :       -0.0206296       0.0804571      -0.0262164
  moments of inertia/u·Å² :        0.1185143E+02   0.1121808E+03   0.1240322E+03
rotational constants/cm⁻¹ :        0.1422413E+01   0.1502720E+00   0.1359134E+00

 * 8 selected distances

     #   Z          #   Z                                           value/Å
     1   6 C        3   6 C                                       1.3284392 (max)
     2   6 C        4   6 C                                       1.3283998
Molecule has the following symmetry elements: (i) (C2) (sigma) 
It seems to be the C2h point group
     1   6 C        5   1 H                                       1.0777715
     1   6 C        6   1 H                                       1.0766271
     2   6 C        7   1 H                                       1.0780020
     2   6 C        8   1 H                                       1.0762101 (min)
     3   6 C        9   1 H                                       1.0821461
     4   6 C       10   1 H                                       1.0824435

 * 2 distinct bonds (by element types)

   Z      Z             #   av. dist./Å        max./Å        min./Å
   1 H    6 C           6     1.0788667     1.0824435     1.0762101
   6 C    6 C           2     1.3284195     1.3284392     1.3283998

           -------------------------------------------------
          |               Frequency Printout                |
           -------------------------------------------------
 projected vibrational frequencies (cm⁻¹)
eigval :       -0.00    -0.00    -0.00     0.00     0.00     0.00
eigval :      143.37   296.58   500.83   506.52   741.35   885.16
eigval :      889.05   912.48   973.83   988.62  1038.86  1198.01
eigval :     1263.46  1292.89  1397.46  1424.11  1664.22  1674.25
eigval :     3053.44  3063.59  3098.94  3100.21  3127.86  3130.94
 reduced masses (amu)
   1:  5.86   2:  9.76   3: 10.55   4:  9.59   5:  9.87   6: 10.58   7:  8.37   8:  7.53
   9:  1.96  10:  8.65  11:  6.83  12:  4.13  13:  3.40  14:  5.90  15:  3.01  16:  2.22
  17:  1.81  18:  7.59  19:  3.36  20:  3.24  21:  2.13  22:  2.94  23: 11.02  24: 11.12
  25:  1.77  26:  1.86  27:  1.56  28:  1.53  29:  2.08  30:  2.06
 IR intensities (km·mol⁻¹)
   1:  0.00   2:  0.00   3:  0.00   4:  0.00   5:  0.00   6:  0.00   7:  0.18   8:  0.12
   9:  2.26  10:  0.00  11:  0.00  12: 28.42  13:  0.45  14:  0.00  15:  3.34  16:  0.00
  17: 28.61  18:  0.00  19:  3.00  20:  0.00  21:  0.31  22:  0.00  23:  1.50  24:  0.00
  25:  1.21  26: 53.44  27:  4.80  28: 35.73  29: 24.82  30: 76.52
 Raman intensities (Ä⁴*amu⁻¹)
   1:  0.00   2:  0.00   3:  0.00   4:  0.00   5:  0.00   6:  0.00   7:  0.00   8:  0.00
   9:  0.00  10:  0.00  11:  0.00  12:  0.00  13:  0.00  14:  0.00  15:  0.00  16:  0.00
  17:  0.00  18:  0.00  19:  0.00  20:  0.00  21:  0.00  22:  0.00  23:  0.00  24:  0.00
  25:  0.00  26:  0.00  27:  0.00  28:  0.00  29:  0.00  30:  0.00
 output can be read by thermo (or use thermo option).
 writing <g98.out> molden fake output.
 recommended (thermochemical) frequency scaling factor: 1.0
           -------------------------------------------------
          |             Thermodynamic Functions             |
           -------------------------------------------------

c2h symmetry found (for desy threshold:  0.10E+00) used in thermo

          ...................................................
          :                      SETUP                      :
          :.................................................:
          :  # frequencies                          24      :
          :  # imaginary freq.                       0      :
          :  linear?                             false      :
          :  only rotor calc.                    false      :
          :  symmetry                              c2h      :
          :  rotational number                       2      :
          :  scaling factor                  1.0000000      :
          :  rotor cutoff                   50.0000000 cm⁻¹ :
          :  imag. cutoff                  -20.0000000 cm⁻¹ :
          :.................................................:

    mode    ω/cm⁻¹     T·S(HO)/kcal·mol⁻¹    T·S(FR)/kcal·mol⁻¹   T·S(vib)
   ------------------------------------------------------------------------
       1    143.37    -0.82243 ( 98.54%)    -0.74407 (  1.46%)    -0.82129
       2    296.58    -0.42817 ( 99.92%)    -0.52895 (  0.08%)    -0.42826
   ------------------------------------------------------------------------

   temp. (K)  partition function   enthalpy   heat capacity  entropy
                                   cal/mol     cal/K/mol   cal/K/mol   J/K/mol
Note: The following floating-point exceptions are signalling: IEEE_UNDERFLOW_FLAG
normal termination of xtb
 298.15  VIB   3.51                 1227.192     10.276      6.606
         ROT  0.155E+05              888.752      2.981     22.156
         INT  0.544E+05             2115.944     13.257     28.763
         TR   0.385E+27             1481.254      4.968     37.869
         TOT                        3597.1980    18.2250    66.6318   278.7875

       T/K    H(0)-H(T)+PV         H(T)/Eh          T*S/Eh         G(T)/Eh
   ------------------------------------------------------------------------
    298.15    0.573250E-02    0.885804E-01    0.316589E-01    0.569215E-01
   ------------------------------------------------------------------------

         :::::::::::::::::::::::::::::::::::::::::::::::::::::
         ::                  THERMODYNAMIC                  ::
         :::::::::::::::::::::::::::::::::::::::::::::::::::::
         :: total free energy         -11.495779856817 Eh   ::
         ::.................................................::
         :: total energy              -11.552701365279 Eh   ::
         :: zero point energy           0.082847931208 Eh   ::
         :: G(RRHO) w/o ZPVE           -0.025926422746 Eh   ::
         :: G(RRHO) contrib.            0.056921508462 Eh   ::
         :::::::::::::::::::::::::::::::::::::::::::::::::::::

optimized geometry written to: xtbopt.xyz


           -------------------------------------------------
          | TOTAL ENERGY              -11.552701365279 Eh   |
          | TOTAL ENTHALPY            -11.464120934153 Eh   |
          | TOTAL FREE ENERGY         -11.495779856817 Eh   |
          | GRADIENT NORM               0.000641251573 Eh/α |
          | HOMO-LUMO GAP               3.784733080006 eV   |
           -------------------------------------------------

------------------------------------------------------------------------
 * finished run on 2026/09/04 at 18:32:20.384     
------------------------------------------------------------------------
 total:
 * wall-time:     0 d,  0 h,  0 min,  0.089 sec
 *  cpu-time:     0 d,  0 h,  0 min,  0.086 sec
 * ratio c/w:     0.961 speedup
 SCF:
 * wall-time:     0 d,  0 h,  0 min,  0.001 sec
 *  cpu-time:     0 d,  0 h,  0 min,  0.001 sec
 * ratio c/w:     0.997 speedup
 ANC optimizer:
 * wall-time:     0 d,  0 h,  0 min,  0.020 sec
 *  cpu-time:     0 d,  0 h,  0 min,  0.020 sec
 * ratio c/w:     0.999 speedup
 analytical hessian:
 * wall-time:     0 d,  0 h,  0 min,  0.061 sec
 *  cpu-time:     0 d,  0 h,  0 min,  0.061 sec
 * ratio c/w:     0.997 speedup

