10
 energy: -11.552701365279 gnorm: 0.000641246355 xtb: 6.7.1 (unknown)
C            0.13897891538087        1.89713926283691       -0.19306425936404
C           -0.18056258814011       -1.73610101371176        0.14066169132326
C           -0.29756129740854        0.65471482989472       -0.36789133450022
C            0.25658476910695       -0.49396044274671        0.31568962761492
H            0.94602093889666        2.12125293004172        0.48520373098911
H           -0.29153623153446        2.73325943883791       -0.71716865683011
H           -0.99103283793285       -1.95783913529638       -0.53465925203718
H            0.25119130735238       -2.57323193393696        0.66126562207795
H           -1.10946856683163        0.45347634038870       -1.05444032606988
H            1.07154419316975       -0.29374681885322        0.99938498072623
