 Entering Gaussian System
 *********************************************
 Gaussian 98:
 frequency output generated by the xtb code
 *********************************************
                         Standard orientation:
 --------------------------------------------------------------------
  Center     Atomic     Atomic              Coordinates (Angstroms)
  Number     Number      Type              X           Y           Z
 --------------------------------------------------------------------
    1          6             0       -0.902043   -1.388883   -0.211998
    2          6             0       -1.508680   -0.189966   -0.190335
    3          6             0        0.526695   -1.499998   -0.281831
    4          6             0        1.310837   -0.409692   -0.326198
    5          6             0       -0.755451    1.040195    0.012895
    6          6             0        0.780310    0.920740   -0.060090
    7          6             0        0.088336    1.182987    1.245695
    8          1             0       -1.483260   -2.293879   -0.310845
    9          1             0       -2.575880   -0.101635   -0.333896
   10          1             0        0.947919   -2.483693   -0.433132
   11          1             0        2.359879   -0.485610   -0.572505
   12          1             0       -1.214352    1.945218   -0.369533
   13          1             0        1.336069    1.746918   -0.488639
   14          1             0        0.187497    2.166414    1.676584
   15          1             0        0.058643    0.376025    1.961669
 --------------------------------------------------------------------
     1 basis functions        1 primitive gaussians
     1 alpha electrons        1 beta electrons

 Harmonic frequencies (cm**-1), IR intensities (km*mol⁻¹),
 Raman scattering activities (A**4/amu), Raman depolarization ratios,
 reduced masses (AMU), force constants (mDyne/A) and normal coordinates:
                      1                      2                      3
                        a                      a                      a 
 Frequencies --   229.9075               272.5767               424.6572
 Red. masses --     8.9269                 8.3344                 7.6987
 Frc consts  --     0.0000                 0.0000                 0.0000
 IR Inten    --     0.4729                 0.5961                 1.8436
 Raman Activ --     0.0000                 0.0000                 0.0000
 Depolar     --     0.0000                 0.0000                 0.0000
 Atom AN      X      Y      Z        X      Y      Z        X      Y      Z
   1   6    -0.03  -0.11  -0.35     0.04   0.01   0.36     0.02  -0.16   0.09
   2   6    -0.00  -0.12   0.29     0.07   0.03   0.13     0.18  -0.04  -0.32
   3   6    -0.02  -0.11  -0.35     0.01  -0.01  -0.36    -0.04  -0.16   0.10
   4   6     0.01  -0.12   0.29     0.05  -0.04  -0.13    -0.21  -0.00  -0.30
   5   6     0.02  -0.06   0.07     0.12   0.07  -0.31    -0.04  -0.03   0.24
   6   6    -0.03  -0.05   0.07     0.13  -0.09   0.30     0.06  -0.04   0.24
   7   6     0.04   0.49   0.00    -0.35   0.03   0.02     0.03   0.34   0.15
   8   1    -0.02  -0.02  -0.15    -0.01  -0.00   0.26    -0.02  -0.02  -0.08
   9   1    -0.02  -0.03   0.20     0.00  -0.00   0.16     0.09   0.01  -0.35
  10   1     0.00  -0.02  -0.15    -0.03   0.01  -0.26     0.01  -0.02  -0.08
  11   1     0.03  -0.03   0.19    -0.01   0.00  -0.16    -0.12   0.02  -0.34
  12   1    -0.01  -0.06  -0.06     0.08   0.00  -0.18    -0.01  -0.02   0.03
  13   1    -0.00  -0.06  -0.06     0.09  -0.02   0.17     0.01  -0.02   0.03
  14   1     0.01   0.21  -0.14    -0.08   0.01   0.00     0.01   0.17  -0.11
  15   1     0.02   0.25   0.12    -0.26   0.02   0.01     0.02   0.21   0.17
                      4                      5                      6
                        a                      a                      a 
 Frequencies --   485.7062               577.9464               583.6943
 Red. masses --    10.6218                10.2244                10.0013
 Frc consts  --     0.0000                 0.0000                 0.0000
 IR Inten    --     0.0863                 0.6619                 0.0007
 Raman Activ --     0.0000                 0.0000                 0.0000
 Depolar     --     0.0000                 0.0000                 0.0000
 Atom AN      X      Y      Z        X      Y      Z        X      Y      Z
   1   6    -0.29  -0.26   0.09     0.00   0.27   0.04    -0.07  -0.05  -0.42
   2   6    -0.11  -0.19  -0.13    -0.48   0.02  -0.02    -0.02  -0.06   0.40
   3   6    -0.25   0.31  -0.07     0.04   0.27   0.03    -0.02   0.06   0.42
   4   6    -0.06   0.20   0.14     0.48  -0.05  -0.06    -0.04   0.07  -0.39
   5   6     0.24  -0.36  -0.11    -0.14  -0.28   0.11     0.17  -0.05  -0.15
   6   6     0.30   0.31   0.08     0.10  -0.30   0.10     0.19   0.02   0.13
   7   6     0.16  -0.01  -0.01     0.00   0.04  -0.06    -0.16   0.01   0.01
   8   1    -0.03  -0.11   0.07     0.10   0.02  -0.05    -0.00  -0.01  -0.20
   9   1    -0.02   0.05  -0.02    -0.11  -0.00  -0.16    -0.01   0.03   0.14
  10   1    -0.02   0.12  -0.07    -0.10   0.03  -0.04     0.02   0.01   0.20
  11   1    -0.03  -0.05   0.02     0.10  -0.02  -0.16    -0.02  -0.03  -0.14
  12   1     0.04  -0.10   0.01     0.06  -0.05  -0.03     0.04  -0.05  -0.11
  13   1     0.05   0.09  -0.01    -0.08  -0.04  -0.03     0.05   0.04   0.11
  14   1    -0.16   0.01   0.01    -0.00   0.07  -0.14    -0.03   0.00   0.00
  15   1     0.18  -0.01  -0.01     0.01   0.11   0.09    -0.15   0.01   0.01
                      7                      8                      9
                        a                      a                      a 
 Frequencies --   718.5173               815.9024               816.8993
 Red. masses --     5.4029                 7.7478                 4.8154
 Frc consts  --     0.0000                 0.0000                 0.0000
 IR Inten    --    16.1963                14.3187                 0.6270
 Raman Activ --     0.0000                 0.0000                 0.0000
 Depolar     --     0.0000                 0.0000                 0.0000
 Atom AN      X      Y      Z        X      Y      Z        X      Y      Z
   1   6    -0.04   0.04  -0.05     0.05  -0.03  -0.11     0.12   0.24  -0.18
   2   6    -0.05   0.00  -0.33    -0.08  -0.04  -0.08    -0.09   0.10  -0.14
   3   6     0.04   0.04  -0.05    -0.03  -0.10  -0.05     0.12  -0.24   0.19
   4   6     0.01  -0.00  -0.34     0.03  -0.08  -0.04    -0.10  -0.07   0.17
   5   6     0.18  -0.11   0.00    -0.40   0.18   0.17     0.09  -0.16  -0.07
   6   6    -0.19  -0.08   0.02     0.45   0.15   0.15    -0.01   0.10   0.02
   7   6     0.02   0.05   0.27    -0.02  -0.03  -0.30    -0.01   0.01   0.04
   8   1     0.00  -0.04   0.35     0.00  -0.03   0.24     0.00   0.06   0.16
   9   1    -0.07   0.01   0.36    -0.06  -0.12   0.16    -0.08  -0.01   0.39
  10   1     0.03  -0.04   0.34     0.01  -0.05   0.18    -0.03  -0.05  -0.22
  11   1     0.11  -0.00   0.35     0.02  -0.11   0.04    -0.13   0.07  -0.41
  12   1     0.06   0.00   0.06    -0.24   0.07   0.24     0.03   0.02   0.11
  13   1    -0.05   0.01   0.06     0.27   0.02   0.17    -0.06  -0.03  -0.17
  14   1     0.00   0.09  -0.10    -0.06   0.02  -0.12    -0.35   0.03   0.03
  15   1     0.02   0.14   0.21     0.04   0.04  -0.03     0.23  -0.02  -0.01
                     10                     11                     12
                        a                      a                      a 
 Frequencies --   838.3232               887.7735               893.5566
 Red. masses --     5.7712                 8.4949                 3.5521
 Frc consts  --     0.0000                 0.0000                 0.0000
 IR Inten    --     1.6542                 2.3795                 1.4473
 Raman Activ --     0.0000                 0.0000                 0.0000
 Depolar     --     0.0000                 0.0000                 0.0000
 Atom AN      X      Y      Z        X      Y      Z        X      Y      Z
   1   6    -0.03  -0.14  -0.15     0.20   0.21  -0.02    -0.05  -0.09  -0.18
   2   6    -0.11  -0.13  -0.18    -0.39  -0.03   0.15    -0.11  -0.05   0.04
   3   6     0.00   0.15   0.15     0.17  -0.25  -0.01     0.01  -0.08  -0.17
   4   6    -0.07   0.14   0.19    -0.39   0.09  -0.11     0.13  -0.08   0.03
   5   6    -0.11   0.17  -0.13     0.02  -0.08  -0.21    -0.02   0.08   0.09
   6   6    -0.12  -0.15   0.14     0.05   0.08   0.21     0.04   0.07   0.07
   7   6     0.32  -0.02  -0.01     0.23  -0.01  -0.01     0.02   0.27   0.11
   8   1     0.06  -0.11   0.15     0.08   0.03   0.11    -0.01  -0.08   0.38
   9   1    -0.08  -0.10   0.24    -0.06  -0.08  -0.34    -0.01  -0.00  -0.20
  10   1     0.06   0.10  -0.15     0.07  -0.04  -0.10     0.03  -0.08   0.36
  11   1    -0.09   0.11  -0.24    -0.02   0.09   0.33    -0.01  -0.01  -0.20
  12   1     0.04   0.03  -0.16     0.09   0.01  -0.08     0.13  -0.01  -0.23
  13   1     0.05  -0.04   0.15     0.09  -0.03   0.06    -0.16   0.01  -0.22
  14   1     0.51  -0.04  -0.02     0.04  -0.01   0.01     0.01  -0.09   0.39
  15   1    -0.15   0.01   0.01     0.11  -0.01  -0.01    -0.03  -0.18  -0.25
                     13                     14                     15
                        a                      a                      a 
 Frequencies --   902.8298               918.3876               989.7248
 Red. masses --     5.2216                 4.0357                 8.2709
 Frc consts  --     0.0000                 0.0000                 0.0000
 IR Inten    --     0.9310                 0.6875                 8.7237
 Raman Activ --     0.0000                 0.0000                 0.0000
 Depolar     --     0.0000                 0.0000                 0.0000
 Atom AN      X      Y      Z        X      Y      Z        X      Y      Z
   1   6     0.08   0.07  -0.19    -0.08  -0.08  -0.27     0.23   0.17  -0.03
   2   6     0.15   0.09   0.24     0.15   0.02   0.10     0.31   0.07  -0.05
   3   6    -0.08   0.09  -0.17    -0.04   0.09   0.29    -0.20   0.21  -0.00
   4   6    -0.11   0.10   0.25     0.14  -0.04  -0.13    -0.29   0.11  -0.02
   5   6     0.08  -0.13  -0.08    -0.03   0.06   0.08    -0.15  -0.20   0.22
   6   6    -0.11  -0.11  -0.08    -0.05  -0.05  -0.08     0.13  -0.22   0.22
   7   6    -0.02  -0.23  -0.04    -0.07   0.01   0.00    -0.01  -0.06  -0.25
   8   1    -0.02   0.01   0.35    -0.05  -0.07   0.52     0.04   0.07   0.04
   9   1     0.10   0.09  -0.29     0.08   0.05  -0.21     0.06  -0.07   0.16
  10   1     0.05   0.01   0.31    -0.09   0.08  -0.55    -0.02   0.07   0.05
  11   1    -0.11   0.10  -0.27     0.09  -0.07   0.22    -0.05  -0.06   0.16
  12   1    -0.04  -0.01   0.13    -0.04   0.01   0.06     0.14  -0.12  -0.29
  13   1     0.05  -0.01   0.12    -0.05  -0.01  -0.05    -0.18  -0.09  -0.28
  14   1    -0.01   0.07  -0.31    -0.05   0.00   0.00    -0.01  -0.03  -0.05
  15   1     0.02   0.14   0.21     0.02  -0.00  -0.00    -0.01  -0.06  -0.12
                     16                     17                     18
                        a                      a                      a 
 Frequencies --  1025.6208              1050.6550              1052.4654
 Red. masses --     8.7919                 6.5247                 3.6821
 Frc consts  --     0.0000                 0.0000                 0.0000
 IR Inten    --     2.9136                 6.4651                 4.1970
 Raman Activ --     0.0000                 0.0000                 0.0000
 Depolar     --     0.0000                 0.0000                 0.0000
 Atom AN      X      Y      Z        X      Y      Z        X      Y      Z
   1   6     0.08   0.09  -0.01     0.35   0.17  -0.02    -0.04  -0.02   0.01
   2   6    -0.16  -0.03  -0.07     0.05  -0.16  -0.00     0.06   0.01   0.03
   3   6     0.05  -0.09   0.00    -0.33   0.23   0.01    -0.01   0.01  -0.00
   4   6    -0.15   0.06   0.09    -0.06  -0.15  -0.00     0.06  -0.01  -0.04
   5   6     0.20  -0.15   0.39     0.08  -0.01  -0.16    -0.01   0.03  -0.21
   6   6     0.19   0.11  -0.41    -0.10  -0.00  -0.13     0.01  -0.03   0.22
   7   6    -0.43   0.04   0.02     0.01   0.16   0.22    -0.36   0.02   0.01
   8   1     0.06  -0.01   0.08     0.28  -0.06  -0.01    -0.04   0.02  -0.03
   9   1    -0.04   0.06   0.03     0.00  -0.30  -0.05     0.02   0.00   0.00
  10   1     0.05   0.01  -0.09    -0.29  -0.02   0.02    -0.02  -0.01   0.04
  11   1    -0.05  -0.06  -0.02    -0.05  -0.30  -0.05     0.02   0.02   0.00
  12   1     0.19  -0.07  -0.12    -0.19  -0.03   0.13    -0.07   0.04   0.10
  13   1     0.21   0.03   0.10     0.18  -0.07   0.11    -0.09  -0.03  -0.10
  14   1     0.38  -0.03  -0.02     0.02  -0.02   0.20     0.45  -0.04  -0.03
  15   1    -0.06   0.00   0.00     0.02  -0.04  -0.03     0.71  -0.05  -0.03
                     19                     20                     21
                        a                      a                      a 
 Frequencies --  1072.5033              1099.9539              1100.8027
 Red. masses --     3.4283                 4.4434                 3.7366
 Frc consts  --     0.0000                 0.0000                 0.0000
 IR Inten    --     0.1119                 0.5406                 0.0883
 Raman Activ --     0.0000                 0.0000                 0.0000
 Depolar     --     0.0000                 0.0000                 0.0000
 Atom AN      X      Y      Z        X      Y      Z        X      Y      Z
   1   6    -0.03  -0.14  -0.00    -0.08   0.07   0.01    -0.01   0.11  -0.02
   2   6    -0.03  -0.04   0.02     0.07   0.08  -0.03     0.15   0.02   0.00
   3   6    -0.00   0.14   0.00     0.08   0.03   0.01    -0.05  -0.12   0.02
   4   6    -0.03   0.05  -0.02    -0.02   0.08  -0.03     0.16  -0.07  -0.01
   5   6    -0.05   0.26   0.12     0.03  -0.31   0.03    -0.20  -0.14   0.03
   6   6    -0.10  -0.25  -0.11    -0.12  -0.24   0.03    -0.16   0.24  -0.02
   7   6    -0.03   0.00  -0.00     0.03   0.28  -0.15     0.14  -0.05   0.01
   8   1     0.08  -0.09  -0.04    -0.07   0.05   0.03    -0.18   0.15   0.02
   9   1    -0.02  -0.06   0.01     0.04   0.29   0.04     0.04  -0.02   0.02
  10   1     0.10   0.08   0.03     0.02   0.01   0.02    -0.21  -0.12  -0.01
  11   1    -0.01   0.07  -0.01     0.02   0.29   0.04     0.03  -0.06  -0.03
  12   1     0.37   0.16  -0.22    -0.32  -0.19   0.14    -0.01  -0.23  -0.50
  13   1     0.36  -0.22   0.19     0.30  -0.17   0.24    -0.00   0.28   0.45
  14   1    -0.38   0.03   0.02     0.01  -0.05   0.23     0.00   0.01  -0.03
  15   1     0.40  -0.03  -0.02    -0.00  -0.16  -0.30     0.22   0.00   0.03
                     22                     23                     24
                        a                      a                      a 
 Frequencies --  1190.9012              1199.1806              1220.1287
 Red. masses --     1.7520                 1.6930                 3.3253
 Frc consts  --     0.0000                 0.0000                 0.0000
 IR Inten    --     0.2302                 0.0598                 1.1392
 Raman Activ --     0.0000                 0.0000                 0.0000
 Depolar     --     0.0000                 0.0000                 0.0000
 Atom AN      X      Y      Z        X      Y      Z        X      Y      Z
   1   6     0.06  -0.07  -0.01     0.06  -0.01   0.02     0.07  -0.04  -0.00
   2   6    -0.00  -0.03  -0.00    -0.06   0.11   0.00     0.01  -0.01   0.01
   3   6    -0.07  -0.07   0.00     0.07   0.01  -0.02    -0.07  -0.03   0.00
   4   6    -0.01  -0.03   0.00    -0.07  -0.09   0.00    -0.01  -0.01   0.01
   5   6     0.03   0.10   0.07    -0.09   0.02  -0.04     0.13  -0.11   0.07
   6   6    -0.01   0.10   0.07    -0.09  -0.01   0.05    -0.14  -0.09   0.08
   7   6    -0.01  -0.07  -0.11     0.05  -0.00  -0.00    -0.00   0.17  -0.32
   8   1     0.48  -0.32  -0.03     0.31  -0.19  -0.01     0.00   0.00  -0.01
   9   1     0.03   0.38   0.04     0.02   0.53   0.04    -0.00  -0.10   0.00
  10   1    -0.51  -0.23   0.02     0.36   0.15  -0.02    -0.00   0.00  -0.01
  11   1     0.03   0.35   0.04    -0.07  -0.54  -0.04    -0.01  -0.09   0.00
  12   1     0.05   0.03  -0.04    -0.12  -0.07  -0.08     0.39   0.28   0.35
  13   1    -0.06   0.04  -0.02    -0.10   0.09   0.10    -0.30   0.34   0.39
  14   1    -0.00   0.01  -0.09    -0.03   0.00   0.00    -0.00  -0.00   0.01
  15   1     0.00   0.01  -0.00     0.09  -0.01  -0.00    -0.02  -0.07  -0.23
                     25                     26                     27
                        a                      a                      a 
 Frequencies --  1297.2262              1363.6671              1374.6041
 Red. masses --     3.4691                 6.7117                 7.1865
 Frc consts  --     0.0000                 0.0000                 0.0000
 IR Inten    --     0.0996                 0.6184                 0.8870
 Raman Activ --     0.0000                 0.0000                 0.0000
 Depolar     --     0.0000                 0.0000                 0.0000
 Atom AN      X      Y      Z        X      Y      Z        X      Y      Z
   1   6    -0.14   0.09   0.00     0.25  -0.04   0.00    -0.15   0.10  -0.00
   2   6    -0.01   0.16  -0.02     0.01  -0.07   0.01     0.19   0.21   0.06
   3   6    -0.15  -0.06   0.01    -0.25   0.00   0.02    -0.16  -0.08   0.02
   4   6    -0.03  -0.16   0.02    -0.03  -0.07   0.01     0.15  -0.24  -0.07
   5   6     0.19   0.13   0.07    -0.34  -0.08  -0.21    -0.23  -0.33  -0.07
   6   6     0.16  -0.15  -0.09     0.31  -0.14  -0.24    -0.16   0.36   0.08
   7   6    -0.03   0.00   0.00     0.01   0.07   0.19     0.02  -0.00   0.00
   8   1     0.29  -0.18   0.00    -0.10   0.10  -0.01     0.25  -0.15  -0.02
   9   1    -0.03  -0.34  -0.03     0.02   0.30   0.05     0.04  -0.14  -0.00
  10   1     0.31   0.14  -0.03     0.11   0.08  -0.02     0.28   0.11  -0.01
  11   1     0.02   0.34   0.03     0.03   0.29   0.05     0.06   0.14  -0.00
  12   1    -0.30  -0.20  -0.12     0.14   0.14   0.06     0.28   0.11   0.06
  13   1    -0.25   0.24   0.15    -0.11   0.16   0.07     0.25  -0.15  -0.09
  14   1    -0.07   0.01   0.00     0.01  -0.08   0.31     0.13  -0.01  -0.00
  15   1     0.09  -0.01  -0.00     0.02   0.15   0.22    -0.10   0.01   0.01
                     28                     29                     30
                        a                      a                      a 
 Frequencies --  1414.6695              1444.0012              1578.8424
 Red. masses --     7.8526                 5.2134                11.4544
 Frc consts  --     0.0000                 0.0000                 0.0000
 IR Inten    --     4.6365                 2.5233                 4.1689
 Raman Activ --     0.0000                 0.0000                 0.0000
 Depolar     --     0.0000                 0.0000                 0.0000
 Atom AN      X      Y      Z        X      Y      Z        X      Y      Z
   1   6     0.33   0.02   0.00    -0.02   0.07   0.00    -0.34   0.36   0.01
   2   6    -0.15  -0.30  -0.04    -0.02  -0.12  -0.02     0.18  -0.43  -0.00
   3   6    -0.32   0.07   0.04     0.03   0.06   0.00     0.39   0.30  -0.03
   4   6     0.10  -0.32  -0.05    -0.00  -0.12  -0.02    -0.24  -0.39   0.02
   5   6     0.21   0.18   0.12     0.21   0.07   0.12    -0.10   0.04  -0.02
   6   6    -0.16   0.21   0.13    -0.18   0.10   0.14     0.10   0.02  -0.03
   7   6    -0.01  -0.05  -0.04    -0.03  -0.08  -0.46     0.00   0.02   0.07
   8   1    -0.20   0.19   0.00    -0.03   0.03   0.01     0.04   0.03   0.01
   9   1    -0.01   0.22  -0.01     0.00  -0.00  -0.02     0.07   0.06  -0.03
  10   1     0.22   0.16  -0.02     0.03   0.03   0.01    -0.03   0.03   0.02
  11   1     0.04   0.22  -0.01    -0.00  -0.00  -0.02    -0.06   0.07  -0.02
  12   1    -0.05  -0.03  -0.04    -0.03  -0.05  -0.02     0.07   0.07   0.03
  13   1     0.04  -0.04  -0.04     0.02  -0.05  -0.02    -0.05   0.08   0.04
  14   1    -0.01   0.09  -0.26     0.00  -0.26   0.47     0.00   0.04  -0.05
  15   1    -0.02  -0.13  -0.17     0.05   0.40   0.39    -0.01  -0.05  -0.04
                     31                     32                     33
                        a                      a                      a 
 Frequencies --  1659.8724              3025.1449              3033.4082
 Red. masses --    11.3662                 1.7890                 1.8142
 Frc consts  --     0.0000                 0.0000                 0.0000
 IR Inten    --     0.2411                17.9623                54.4322
 Raman Activ --     0.0000                 0.0000                 0.0000
 Depolar     --     0.0000                 0.0000                 0.0000
 Atom AN      X      Y      Z        X      Y      Z        X      Y      Z
   1   6     0.21  -0.42  -0.02    -0.00  -0.00   0.00    -0.00   0.00   0.00
   2   6    -0.14   0.47   0.02    -0.02  -0.00  -0.00    -0.01  -0.00  -0.00
   3   6     0.27   0.38  -0.00    -0.00   0.00  -0.00     0.00   0.00   0.00
   4   6    -0.21  -0.44  -0.00    -0.01   0.00   0.00     0.02  -0.00  -0.00
   5   6    -0.01  -0.09   0.01     0.09  -0.19   0.08     0.06  -0.12   0.05
   6   6     0.00   0.09  -0.01     0.07   0.11  -0.05    -0.12  -0.17   0.09
   7   6    -0.02   0.00   0.00     0.00   0.01  -0.00     0.00   0.03  -0.01
   8   1    -0.13   0.00  -0.01     0.00   0.00   0.00    -0.00  -0.01  -0.00
   9   1    -0.06  -0.07  -0.00     0.08  -0.01   0.01     0.06  -0.00   0.01
  10   1    -0.13   0.02   0.02     0.00  -0.01  -0.00     0.00  -0.01  -0.00
  11   1    -0.05   0.08   0.01     0.05  -0.00  -0.01    -0.09   0.01   0.02
  12   1    -0.01  -0.04  -0.03    -0.34   0.68  -0.29    -0.21   0.42  -0.17
  13   1    -0.01   0.04   0.03    -0.26  -0.39   0.20     0.41   0.62  -0.32
  14   1     0.02  -0.00  -0.00    -0.00  -0.01  -0.01    -0.01  -0.07  -0.03
  15   1     0.00  -0.00  -0.00     0.00  -0.01   0.01    -0.00  -0.06   0.06
                     34                     35                     36
                        a                      a                      a 
 Frequencies --  3066.6034              3069.5521              3079.9197
 Red. masses --     1.7456                 1.7881                 1.8772
 Frc consts  --     0.0000                 0.0000                 0.0000
 IR Inten    --     5.2351                19.7174               110.2027
 Raman Activ --     0.0000                 0.0000                 0.0000
 Depolar     --     0.0000                 0.0000                 0.0000
 Atom AN      X      Y      Z        X      Y      Z        X      Y      Z
   1   6     0.05   0.08   0.01    -0.05  -0.09  -0.01    -0.05  -0.09  -0.01
   2   6    -0.08   0.01  -0.01     0.21  -0.02   0.03    -0.11   0.01  -0.01
   3   6     0.07  -0.16  -0.02     0.02  -0.07  -0.01    -0.05   0.13   0.02
   4   6    -0.13   0.00   0.03    -0.10   0.01   0.02    -0.19   0.01   0.04
   5   6    -0.01   0.01  -0.00     0.02  -0.02   0.01    -0.01   0.01  -0.00
   6   6    -0.01  -0.01   0.01    -0.01  -0.01   0.01    -0.01  -0.02   0.01
   7   6     0.00   0.00   0.00     0.00   0.01  -0.00     0.00   0.00  -0.00
   8   1    -0.20  -0.31  -0.03     0.20   0.32   0.03     0.20   0.32   0.03
   9   1     0.30  -0.03   0.04    -0.74   0.06  -0.10     0.36  -0.03   0.05
  10   1    -0.26   0.61   0.09    -0.10   0.24   0.04     0.18  -0.42  -0.06
  11   1     0.49  -0.03  -0.12     0.37  -0.03  -0.09     0.64  -0.05  -0.15
  12   1     0.01  -0.02   0.01    -0.03   0.07  -0.03     0.02  -0.04   0.01
  13   1     0.03   0.04  -0.02     0.03   0.04  -0.02     0.04   0.06  -0.03
  14   1    -0.00  -0.01  -0.00    -0.00  -0.03  -0.01    -0.00  -0.01  -0.00
  15   1     0.00  -0.00   0.00    -0.00  -0.01   0.01    -0.00  -0.01   0.01
                     37                     38                     39
                        a                      a                      a 
 Frequencies --  3088.4425              3092.6559              3109.5104
 Red. masses --     1.9080                 1.4636                 2.1122
 Frc consts  --     0.0000                 0.0000                 0.0000
 IR Inten    --    53.2063                25.2631                30.2382
 Raman Activ --     0.0000                 0.0000                 0.0000
 Depolar     --     0.0000                 0.0000                 0.0000
 Atom AN      X      Y      Z        X      Y      Z        X      Y      Z
   1   6    -0.11  -0.18  -0.02     0.01   0.02   0.00    -0.00  -0.00  -0.00
   2   6    -0.11   0.01  -0.01     0.01  -0.00   0.00    -0.01   0.00  -0.00
   3   6     0.05  -0.12  -0.02    -0.01   0.02   0.00     0.00  -0.00  -0.00
   4   6     0.08  -0.00  -0.02    -0.01  -0.00   0.00     0.01  -0.00  -0.00
   5   6    -0.00   0.01  -0.00    -0.00  -0.00   0.00    -0.01   0.02  -0.01
   6   6     0.01   0.01  -0.00     0.00  -0.00   0.00     0.01   0.02  -0.01
   7   6     0.00  -0.01   0.03     0.01   0.01   0.20     0.02   0.31  -0.04
   8   1     0.38   0.59   0.06    -0.05  -0.07  -0.01     0.01   0.01   0.00
   9   1     0.35  -0.03   0.05    -0.04   0.00  -0.01     0.02  -0.00   0.00
  10   1    -0.17   0.41   0.06     0.02  -0.06  -0.01    -0.01   0.01   0.00
  11   1    -0.28   0.02   0.07     0.03  -0.00  -0.01    -0.02   0.00   0.01
  12   1     0.01  -0.03   0.01    -0.01   0.01  -0.00     0.04  -0.07   0.03
  13   1    -0.01  -0.02   0.01     0.01   0.01  -0.01    -0.05  -0.07   0.03
  14   1    -0.00  -0.05  -0.02    -0.06  -0.60  -0.23    -0.07  -0.64  -0.29
  15   1     0.00   0.09  -0.07     0.02   0.56  -0.46    -0.02  -0.45   0.42
