      -----------------------------------------------------------      
     |                   =====================                   |     
     |                           x T B                           |     
     |                   =====================                   |     
     |                         S. Grimme                         |     
     |          Mulliken Center for Theoretical Chemistry        |     
     |                    University of Bonn                     |     
      -----------------------------------------------------------      

   * xtb version 6.7.1 (unknown) compiled by 'runner@Mac-1732184002186.local' on 2024-11-21

   xtb is free software: you can redistribute it and/or modify it under
   the terms of the GNU Lesser General Public License as published by
   the Free Software Foundation, either version 3 of the License, or
   (at your option) any later version.
   
   xtb is distributed in the hope that it will be useful,
   but WITHOUT ANY WARRANTY; without even the implied warranty of
   MERCHANTABILITY or FITNESS FOR A PARTICULAR PURPOSE.  See the
   GNU Lesser General Public License for more details.
   
   Cite this work as:
   * C. Bannwarth, E. Caldeweyher, S. Ehlert, A. Hansen, P. Pracht,
     J. Seibert, S. Spicher, S. Grimme, WIREs Comput. Mol. Sci., 2020, 11,
     e01493. DOI: 10.1002/wcms.1493
   
   for GFN2-xTB:
   * C. Bannwarth, S. Ehlert and S. Grimme., J. Chem. Theory Comput., 2019,
     15, 1652-1671. DOI: 10.1021/acs.jctc.8b01176
   for GFN1-xTB:
   * S. Grimme, C. Bannwarth, P. Shushkov, J. Chem. Theory Comput., 2017,
     13, 1989-2009. DOI: 10.1021/acs.jctc.7b00118
   for GFN0-xTB:
   * P. Pracht, E. Caldeweyher, S. Ehlert, S. Grimme, ChemRxiv, 2019, preprint.
     DOI: 10.26434/chemrxiv.8326202.v1
   for GFN-FF:
   * S. Spicher and S. Grimme, Angew. Chem. Int. Ed., 2020, 59, 15665-15673.
     DOI: 10.1002/anie.202004239
   
   for ALPB and GBSA implicit solvation:
   * S. Ehlert, M. Stahn, S. Spicher, S. Grimme, J. Chem. Theory Comput.,
     2021, 17, 4250-4261. DOI: 10.1021/acs.jctc.1c00471
   
   for ddCOSMO and CPCM-X implicit solvation:
   * M. Stahn, S. Ehlert, S. Grimme, J. Phys. Chem. A,
     2023, XX, XXXX-XXXX. DOI: 10.1021/acs.jpca.3c04382
   
   for DFT-D4:
   * E. Caldeweyher, C. Bannwarth and S. Grimme, J. Chem. Phys., 2017,
     147, 034112. DOI: 10.1063/1.4993215
   * E. Caldeweyher, S. Ehlert, A. Hansen, H. Neugebauer, S. Spicher,
     C. Bannwarth and S. Grimme, J. Chem. Phys., 2019, 150, 154122.
     DOI: 10.1063/1.5090222
   * E. Caldeweyher, J.-M. Mewes, S. Ehlert and S. Grimme, Phys. Chem. Chem. Phys.
     2020, 22, 8499-8512. DOI: 10.1039/D0CP00502A
   
   for sTDA-xTB:
   * S. Grimme and C. Bannwarth, J. Chem. Phys., 2016, 145, 054103.
     DOI: 10.1063/1.4959605
   
   in the mass-spec context:
   * V. Asgeirsson, C. Bauer and S. Grimme, Chem. Sci., 2017, 8, 4879.
     DOI: 10.1039/c7sc00601b
   * J. Koopman and S. Grimme, ACS Omega 2019, 4, 12, 15120-15133.
     DOI: 10.1021/acsomega.9b02011
   
   for metadynamics refer to:
   * S. Grimme, J. Chem. Theory Comput., 2019, 155, 2847-2862
     DOI: 10.1021/acs.jctc.9b00143
   
   for SPH calculations refer to:
   * S. Spicher and S. Grimme, J. Chem. Theory Comput., 2021, 17, 1701-1714
     DOI: 10.1021/acs.jctc.0c01306
   
   for ONIOM refer to:
   * C. Plett, A. Katbashev, S. Ehlert, S. Grimme, M. Bursch,
     Phys. Chem. Chem. Phys., 2023, 25, 17860-17868. DOI: 10.1039/D3CP02178E
   
   for DIPRO refer to:
   * J. Kohn, N. Gildemeister, S. Grimme, D. Fazzi, A. Hansen,
     J. Chem. Phys., 2023, just accepted.
   
   for PTB refer to:
   * S. Grimme, M. Mueller, A. Hansen, J. Chem. Phys., 2023, 158, 124111.
     DOI: 10.1063/5.0137838
   
   with help from (in alphabetical order)
   P. Atkinson, C. Bannwarth, F. Bohle, G. Brandenburg, E. Caldeweyher
   M. Checinski, S. Dohm, S. Ehlert, S. Ehrlich, I. Gerasimov, C. Hölzer
   A. Katbashev, J. Kohn, J. Koopman, C. Lavigne, S. Lehtola, F. März, M. Müller,
   F. Musil, H. Neugebauer, J. Pisarek, C. Plett, P. Pracht, F. Pultar,
   J. Seibert, P. Shushkov, S. Spicher, M. Stahn, M. Steiner, T. Strunk,
   J. Stückrath, T. Rose, and J. Unsleber
   
 * started run on 2026/09/04 at 18:34:45.657     
   ID    Z sym.   atoms
    1    6 C      1-7
    2    1 H      8-15

           -------------------------------------------------
          |                Calculation Setup                |
           -------------------------------------------------

          program call               : /opt/homebrew/bin/xtb temp_frame_opt.xyz --chrg 0 --uhf 0 --gfn 2 --acc 1.0 --etemp 300.0 --parallel 1 --ohess normal --input control.txt
          coordinate file            : temp_frame_opt.xyz
          omp threads                :                     1


           -------------------------------------------------
          |                 G F N 2 - x T B                 |
           -------------------------------------------------

        Reference                      10.1021/acs.jctc.8b01176
      * Hamiltonian:
        H0-scaling (s, p, d)           1.850000    2.230000    2.230000
        zeta-weighting                 0.500000
      * Dispersion:
        s8                             2.700000
        a1                             0.520000
        a2                             5.000000
        s9                             5.000000
      * Repulsion:
        kExp                           1.500000    1.000000
        rExp                           1.000000
      * Coulomb:
        alpha                          2.000000
        third order                    shell-resolved
        anisotropic                    true
        a3                             3.000000
        a5                             4.000000
        cn-shift                       1.200000
        cn-exp                         4.000000
        max-rad                        5.000000

q/qsh data taken from xtbrestart
CAMM data taken from xtbrestart

          ...................................................
          :                      SETUP                      :
          :.................................................:
          :  # basis functions                  36          :
          :  # atomic orbitals                  36          :
          :  # shells                           22          :
          :  # electrons                        36          :
          :  max. iterations                   250          :
          :  Hamiltonian                  GFN2-xTB          :
          :  restarted?                       true          :
          :  GBSA solvation                  false          :
          :  PC potential                    false          :
          :  electronic temp.          300.0000000     K    :
          :  accuracy                    1.0000000          :
          :  -> integral cutoff          0.2500000E+02      :
          :  -> integral neglect         0.1000000E-07      :
          :  -> SCF convergence          0.1000000E-05 Eh   :
          :  -> wf. convergence          0.1000000E-03 e    :
          :  Broyden damping             0.4000000          :
          :  net charge                          0          :
          :  unpaired electrons                  0          :
          ...................................................

 iter      E             dE          RMSdq      gap      omega  full diag
   1    -19.0329987 -0.190330E+02  0.297E+00    3.90       0.0  T
   2    -19.0327051  0.293658E-03  0.199E+00    3.86       1.0  T
   3    -19.0213724  0.113326E-01  0.139E+00    3.90       1.0  T
   4    -19.0455390 -0.241666E-01  0.189E-01    3.89       1.0  T
   5    -19.0458749 -0.335900E-03  0.688E-02    3.89       1.0  T
   6    -19.0458756 -0.669361E-06  0.414E-02    3.89       1.0  T
   7    -19.0458917 -0.161144E-04  0.108E-02    3.89       2.4  T
   8    -19.0458920 -0.259441E-06  0.481E-03    3.89       5.4  T
   9    -19.0458921 -0.168161E-06  0.175E-03    3.89      14.8  T
  10    -19.0458922 -0.207363E-07  0.475E-04    3.89      54.4  T
  11    -19.0458922 -0.614527E-09  0.226E-04    3.89     114.0  T

   *** convergence criteria satisfied after 11 iterations ***

         #    Occupation            Energy/Eh            Energy/eV
      -------------------------------------------------------------
         1        2.0000           -0.6528625             -17.7653
       ...           ...                  ...                  ...
        12        2.0000           -0.4570713             -12.4375
        13        2.0000           -0.4417974             -12.0219
        14        2.0000           -0.4328234             -11.7777
        15        2.0000           -0.4224140             -11.4945
        16        2.0000           -0.3858223             -10.4988
        17        2.0000           -0.3842578             -10.4562
        18        2.0000           -0.3586715              -9.7599 (HOMO)
        19                         -0.2157345              -5.8704 (LUMO)
        20                         -0.1993810              -5.4254
        21                         -0.1497094              -4.0738
        22                         -0.1120583              -3.0493
        23                         -0.0892035              -2.4274
       ...                                ...                  ...
        36                          0.8922538              24.2795
      -------------------------------------------------------------
                  HL-Gap            0.1429370 Eh            3.8895 eV
             Fermi-level           -0.2872030 Eh           -7.8152 eV

 SCC (total)                   0 d,  0 h,  0 min,  0.006 sec
 SCC setup                      ...        0 min,  0.000 sec (  0.662%)
 Dispersion                     ...        0 min,  0.000 sec (  0.625%)
 classical contributions        ...        0 min,  0.000 sec (  0.229%)
 integral evaluation            ...        0 min,  0.000 sec (  8.086%)
 iterations                     ...        0 min,  0.004 sec ( 65.698%)
 molecular gradient             ...        0 min,  0.001 sec ( 23.734%)
 printout                       ...        0 min,  0.000 sec (  0.854%)

         :::::::::::::::::::::::::::::::::::::::::::::::::::::
         ::                     SUMMARY                     ::
         :::::::::::::::::::::::::::::::::::::::::::::::::::::
         :: total energy             -18.732207587074 Eh    ::
         :: gradient norm              0.353925213557 Eh/a0 ::
         :: HOMO-LUMO gap              3.889514003246 eV    ::
         ::.................................................::
         :: SCC energy               -19.045869743642 Eh    ::
         :: -> isotropic ES            0.001837026433 Eh    ::
         :: -> anisotropic ES          0.004974942624 Eh    ::
         :: -> anisotropic XC          0.021112258136 Eh    ::
         :: -> dispersion             -0.010740166839 Eh    ::
         :: repulsion energy           0.313662156569 Eh    ::
         :: add. restraining           0.000000000000 Eh    ::
         :: total charge               0.000000000000 e     ::
         :::::::::::::::::::::::::::::::::::::::::::::::::::::

      ----------------------------------------------------------- 
     |                       L-ANC optimizer                     |
      ----------------------------------------------------------- 
          low memory version by Sebastian Ehlert

          ...................................................
          :                      SETUP                      :
          :.................................................:
          :   energy convergence        0.5000000E-05 Eh    :
          :   grad. convergence         0.1000000E-02 Eh/a0 :
          :   optimization log               true           :
          :   writing optlog all                1     steps :
          :   Hessian reset                    25     steps :
          :   maximium step len.        1.0000000     a0    :
          :   LBFGS images                     25           :
          ...................................................
 * calculating model hessian...
Using Lindh-Hessian (1995)
 Shifting diagonal of input Hessian by    1.0000000000000000E-002
 Lowest  eigenvalues of input Hessian
    0.000000    0.000000    0.000000    0.000000    0.000000    0.000000
    0.012791    0.015856    0.016305    0.025062    0.026082    0.029806
    0.033402    0.037690    0.040855    0.045466    0.050786    0.059478
 Highest eigenvalues
    1.096218    1.174795    1.403324    1.666622    1.981559    2.104487


........................................................................
.............................. CYCLE    1 ..............................
........................................................................

 iter      E             dE          RMSdq      gap      omega  full diag
   1    -19.1644349 -0.191644E+02  0.982E-01    3.85       0.0  T
   2    -19.1652273 -0.792407E-03  0.673E-01    3.85       1.0  T
   3    -19.1660998 -0.872495E-03  0.399E-01    3.84       1.0  T
   4    -19.1670656 -0.965761E-03  0.102E-01    3.86       1.0  T
   5    -19.1671540 -0.883792E-04  0.269E-02    3.85       1.0  T
   6    -19.1671567 -0.278124E-05  0.133E-02    3.85       1.9  T
   7    -19.1671576 -0.815099E-06  0.354E-03    3.85       7.3  T
   8    -19.1671576 -0.180463E-07  0.189E-03    3.85      13.7  T
   9    -19.1671576 -0.276911E-07  0.792E-04    3.85      32.6  T
  10    -19.1671576 -0.263289E-08  0.166E-04    3.85     155.3  T
     SCC iter.                  ...        0 min,  0.003 sec
     gradient                   ...        0 min,  0.001 sec
 * total energy  :   -18.8757049 Eh     change       -0.1434973E+00 Eh
   gradient norm :     0.2009151 Eh/a0  converged?    E=F G=F D=F
   step length   :     0.6254422 a0

........................................................................
.............................. CYCLE    2 ..............................
........................................................................

 iter      E             dE          RMSdq      gap      omega  full diag
   1    -19.2766166 -0.192766E+02  0.107E+00    3.58       0.0  T
   2    -19.2773789 -0.762279E-03  0.659E-01    3.56       1.0  T
   3    -19.2766054  0.773463E-03  0.369E-01    3.56       1.0  T
   4    -19.2777722 -0.116679E-02  0.102E-01    3.57       1.0  T
   5    -19.2778769 -0.104719E-03  0.204E-02    3.56       1.3  T
   6    -19.2778772 -0.268319E-06  0.813E-03    3.56       3.2  T
   7    -19.2778775 -0.331998E-06  0.173E-03    3.56      15.0  T
   8    -19.2778775 -0.613468E-08  0.131E-03    3.56      19.7  T
   9    -19.2778776 -0.121412E-07  0.316E-04    3.56      81.7  T
  10    -19.2778776 -0.216961E-09  0.603E-05    3.56     428.2  T
     SCC iter.                  ...        0 min,  0.003 sec
     gradient                   ...        0 min,  0.001 sec
 * total energy  :   -18.9565788 Eh     change       -0.8087388E-01 Eh
   gradient norm :     0.1170528 Eh/a0  converged?    E=F G=F D=F
   step length   :     2.5730062 a0

........................................................................
.............................. CYCLE    3 ..............................
........................................................................

 iter      E             dE          RMSdq      gap      omega  full diag
   1    -19.3088961 -0.193089E+02  0.106E+00    3.54       0.0  T
   2    -19.3090482 -0.152141E-03  0.625E-01    3.54       1.0  T
   3    -19.3084646  0.583604E-03  0.256E-01    3.54       1.0  T
   4    -19.3091257 -0.661107E-03  0.357E-02    3.54       1.0  T
   5    -19.3091417 -0.160115E-04  0.133E-02    3.54       1.9  T
   6    -19.3091420 -0.281486E-06  0.458E-03    3.54       5.6  T
   7    -19.3091421 -0.691849E-07  0.306E-03    3.54       8.4  T
   8    -19.3091421 -0.784273E-07  0.498E-04    3.54      51.8  T
   9    -19.3091421 -0.196984E-09  0.221E-04    3.54     117.0  T
     SCC iter.                  ...        0 min,  0.003 sec
     gradient                   ...        0 min,  0.001 sec
 * total energy  :   -18.9874948 Eh     change       -0.3091605E-01 Eh
   gradient norm :     0.0897657 Eh/a0  converged?    E=F G=F D=F
   step length   :     2.3639723 a0

........................................................................
.............................. CYCLE    4 ..............................
........................................................................

 iter      E             dE          RMSdq      gap      omega  full diag
   1    -19.3378872 -0.193379E+02  0.783E-01    3.31       0.0  T
   2    -19.3380203 -0.133067E-03  0.476E-01    3.30       1.0  T
   3    -19.3373497  0.670622E-03  0.251E-01    3.29       1.0  T
   4    -19.3381458 -0.796118E-03  0.334E-02    3.29       1.0  T
   5    -19.3381536 -0.782503E-05  0.125E-02    3.29       2.1  T
   6    -19.3381537 -0.136757E-06  0.104E-02    3.29       2.5  T
   7    -19.3381545 -0.751109E-06  0.178E-03    3.29      14.5  T
   8    -19.3381545 -0.731713E-08  0.672E-04    3.29      38.4  T
   9    -19.3381545 -0.843599E-09  0.239E-04    3.29     107.9  T
     SCC iter.                  ...        0 min,  0.003 sec
     gradient                   ...        0 min,  0.001 sec
 * total energy  :   -18.9942789 Eh     change       -0.6784106E-02 Eh
   gradient norm :     0.1169931 Eh/a0  converged?    E=F G=F D=F
   step length   :     0.9260759 a0

........................................................................
.............................. CYCLE    5 ..............................
........................................................................

 iter      E             dE          RMSdq      gap      omega  full diag
   1    -19.3334357 -0.193334E+02  0.595E-01    3.38       0.0  T
   2    -19.3335123 -0.766514E-04  0.346E-01    3.38       1.0  T
   3    -19.3332658  0.246511E-03  0.156E-01    3.39       1.0  T
   4    -19.3335499 -0.284073E-03  0.272E-02    3.39       1.0  T
   5    -19.3335548 -0.489590E-05  0.122E-02    3.39       2.1  T
   6    -19.3335551 -0.351357E-06  0.286E-03    3.39       9.0  T
   7    -19.3335552 -0.144422E-07  0.894E-04    3.39      28.9  T
   8    -19.3335552 -0.333600E-08  0.477E-04    3.39      54.1  T
     SCC iter.                  ...        0 min,  0.003 sec
     gradient                   ...        0 min,  0.001 sec
 * total energy  :   -19.0023390 Eh     change       -0.8060038E-02 Eh
   gradient norm :     0.0741459 Eh/a0  converged?    E=F G=F D=F
   step length   :     0.5512851 a0

........................................................................
.............................. CYCLE    6 ..............................
........................................................................

 iter      E             dE          RMSdq      gap      omega  full diag
   1    -19.3367289 -0.193367E+02  0.621E-01    3.64       0.0  T
   2    -19.3368186 -0.897257E-04  0.370E-01    3.64       1.0  T
   3    -19.3365119  0.306726E-03  0.185E-01    3.65       1.0  T
   4    -19.3368793 -0.367393E-03  0.283E-02    3.64       1.0  T
   5    -19.3368834 -0.413132E-05  0.157E-02    3.64       1.6  T
   6    -19.3368841 -0.704724E-06  0.414E-03    3.64       6.2  T
   7    -19.3368843 -0.214006E-06  0.215E-03    3.64      12.0  T
   8    -19.3368844 -0.214571E-07  0.577E-04    3.64      44.7  T
   9    -19.3368844 -0.776492E-09  0.130E-04    3.64     198.9  T
     SCC iter.                  ...        0 min,  0.003 sec
     gradient                   ...        0 min,  0.001 sec
 * total energy  :   -18.9981266 Eh     change        0.4212342E-02 Eh
   gradient norm :     0.0938822 Eh/a0  converged?    E=F G=F D=F
   step length   :     0.5590851 a0

........................................................................
.............................. CYCLE    7 ..............................
........................................................................

 iter      E             dE          RMSdq      gap      omega  full diag
   1    -19.3639889 -0.193640E+02  0.616E-01    3.54       0.0  T
   2    -19.3640905 -0.101548E-03  0.361E-01    3.55       1.0  T
   3    -19.3638964  0.194067E-03  0.145E-01    3.55       1.0  T
   4    -19.3641262 -0.229798E-03  0.209E-02    3.55       1.2  T
   5    -19.3641287 -0.249116E-05  0.109E-02    3.55       2.4  T
   6    -19.3641292 -0.471890E-06  0.387E-03    3.55       6.7  T
   7    -19.3641292 -0.184523E-07  0.662E-04    3.55      39.0  T
   8    -19.3641292 -0.182322E-08  0.298E-04    3.55      86.6  T
     SCC iter.                  ...        0 min,  0.003 sec
     gradient                   ...        0 min,  0.001 sec
 * total energy  :   -19.0026915 Eh     change       -0.4564863E-02 Eh
   gradient norm :     0.0750916 Eh/a0  converged?    E=F G=F D=F
   step length   :     0.5695637 a0

........................................................................
.............................. CYCLE    8 ..............................
........................................................................

 iter      E             dE          RMSdq      gap      omega  full diag
   1    -19.3266244 -0.193266E+02  0.687E-01    3.38       0.0  T
   2    -19.3269045 -0.280050E-03  0.427E-01    3.37       1.0  T
   3    -19.3264602  0.444257E-03  0.264E-01    3.37       1.0  T
   4    -19.3271075 -0.647259E-03  0.520E-02    3.37       1.0  T
   5    -19.3271303 -0.228297E-04  0.156E-02    3.37       1.7  T
   6    -19.3271313 -0.928614E-06  0.840E-03    3.37       3.1  T
   7    -19.3271318 -0.552122E-06  0.310E-03    3.37       8.3  T
   8    -19.3271318 -0.333446E-07  0.576E-04    3.37      44.8  T
   9    -19.3271318 -0.148443E-09  0.152E-04    3.37     169.8  T
     SCC iter.                  ...        0 min,  0.003 sec
     gradient                   ...        0 min,  0.001 sec
 * total energy  :   -19.0018550 Eh     change        0.8365029E-03 Eh
   gradient norm :     0.0741717 Eh/a0  converged?    E=F G=F D=F
   step length   :     0.6040712 a0

........................................................................
.............................. CYCLE    9 ..............................
........................................................................

 iter      E             dE          RMSdq      gap      omega  full diag
   1    -19.3536908 -0.193537E+02  0.442E-01    3.49       0.0  T
   2    -19.3537638 -0.729972E-04  0.272E-01    3.49       1.0  T
   3    -19.3535712  0.192535E-03  0.137E-01    3.49       1.0  T
   4    -19.3537997 -0.228485E-03  0.306E-02    3.49       1.0  T
   5    -19.3538072 -0.750328E-05  0.102E-02    3.49       2.5  T
   6    -19.3538073 -0.102215E-06  0.308E-03    3.49       8.4  T
   7    -19.3538074 -0.629960E-07  0.178E-03    3.49      14.5  T
   8    -19.3538074 -0.269779E-07  0.424E-04    3.49      60.8  T
   9    -19.3538074 -0.145256E-09  0.124E-04    3.49     208.2  T
     SCC iter.                  ...        0 min,  0.003 sec
     gradient                   ...        0 min,  0.002 sec
 * total energy  :   -19.0081117 Eh     change       -0.6256758E-02 Eh
   gradient norm :     0.0386061 Eh/a0  converged?    E=F G=F D=F
   step length   :     0.3844878 a0

........................................................................
.............................. CYCLE   10 ..............................
........................................................................

 iter      E             dE          RMSdq      gap      omega  full diag
   1    -19.3596236 -0.193596E+02  0.439E-01    3.60       0.0  T
   2    -19.3596504 -0.267317E-04  0.253E-01    3.60       1.0  T
   3    -19.3594213  0.229075E-03  0.177E-01    3.60       1.0  T
   4    -19.3597121 -0.290828E-03  0.111E-02    3.60       2.3  T
   5    -19.3597124 -0.335532E-06  0.736E-03    3.60       3.5  T
   6    -19.3597128 -0.317458E-06  0.316E-03    3.60       8.2  T
   7    -19.3597128 -0.448874E-07  0.857E-04    3.60      30.1  T
   8    -19.3597128 -0.277003E-08  0.186E-04    3.60     139.1  T
     SCC iter.                  ...        0 min,  0.003 sec
     gradient                   ...        0 min,  0.001 sec
 * total energy  :   -19.0066537 Eh     change        0.1458001E-02 Eh
   gradient norm :     0.0483937 Eh/a0  converged?    E=F G=F D=F
   step length   :     0.3180912 a0

........................................................................
.............................. CYCLE   11 ..............................
........................................................................

 iter      E             dE          RMSdq      gap      omega  full diag
   1    -19.3534119 -0.193534E+02  0.321E-01    3.50       0.0  T
   2    -19.3534291 -0.171596E-04  0.186E-01    3.51       1.0  T
   3    -19.3532971  0.131939E-03  0.134E-01    3.51       1.0  T
   4    -19.3534665 -0.169315E-03  0.104E-02    3.51       2.5  T
   5    -19.3534673 -0.824810E-06  0.497E-03    3.51       5.2  T
   6    -19.3534674 -0.976524E-07  0.253E-03    3.51      10.2  T
   7    -19.3534674 -0.349392E-07  0.871E-04    3.51      29.7  T
   8    -19.3534674 -0.307023E-08  0.155E-04    3.51     166.6  T
     SCC iter.                  ...        0 min,  0.003 sec
     gradient                   ...        0 min,  0.001 sec
 * total energy  :   -19.0097297 Eh     change       -0.3075979E-02 Eh
   gradient norm :     0.0171920 Eh/a0  converged?    E=F G=F D=F
   step length   :     0.2300937 a0

........................................................................
.............................. CYCLE   12 ..............................
........................................................................

 iter      E             dE          RMSdq      gap      omega  full diag
   1    -19.3588226 -0.193588E+02  0.128E-01    3.51       0.0  T
   2    -19.3588268 -0.421485E-05  0.752E-02    3.51       1.0  T
   3    -19.3588223  0.456141E-05  0.235E-02    3.51       1.1  T
   4    -19.3588279 -0.564046E-05  0.673E-03    3.51       3.8  T
   5    -19.3588282 -0.334707E-06  0.257E-03    3.51      10.0  T
   6    -19.3588282  0.284384E-08  0.936E-04    3.51      27.6  T
   7    -19.3588282 -0.926420E-08  0.295E-04    3.51      87.6  T
     SCC iter.                  ...        0 min,  0.002 sec
     gradient                   ...        0 min,  0.001 sec
 * total energy  :   -19.0096654 Eh     change        0.6436341E-04 Eh
   gradient norm :     0.0160542 Eh/a0  converged?    E=F G=F D=F
   step length   :     0.1015996 a0

........................................................................
.............................. CYCLE   13 ..............................
........................................................................

 iter      E             dE          RMSdq      gap      omega  full diag
   1    -19.3570915 -0.193571E+02  0.848E-02    3.52       0.0  T
   2    -19.3570934 -0.192879E-05  0.511E-02    3.52       1.0  T
   3    -19.3570867  0.665668E-05  0.274E-02    3.52       1.0  T
   4    -19.3570948 -0.803815E-05  0.458E-03    3.52       5.6  T
   5    -19.3570950 -0.174857E-06  0.156E-03    3.52      16.5  T
   6    -19.3570949  0.460758E-08  0.799E-04    3.52      32.3  T
   7    -19.3570950 -0.812991E-08  0.168E-04    3.52     153.4  T
     SCC iter.                  ...        0 min,  0.002 sec
     gradient                   ...        0 min,  0.001 sec
 * total energy  :   -19.0100309 Eh     change       -0.3654998E-03 Eh
   gradient norm :     0.0058410 Eh/a0  converged?    E=F G=F D=F
   step length   :     0.0823443 a0

........................................................................
.............................. CYCLE   14 ..............................
........................................................................

 iter      E             dE          RMSdq      gap      omega  full diag
   1    -19.3574634 -0.193575E+02  0.359E-02    3.52       0.0  T
   2    -19.3574638 -0.315692E-06  0.211E-02    3.52       1.2  T
   3    -19.3574634  0.323491E-06  0.543E-03    3.52       4.8  T
   4    -19.3574638 -0.363090E-06  0.188E-03    3.52      13.8  T
   5    -19.3574638 -0.368904E-07  0.332E-04    3.52      77.7  T
   6    -19.3574638 -0.180417E-09  0.151E-04    3.52     170.6  T
     SCC iter.                  ...        0 min,  0.002 sec
     gradient                   ...        0 min,  0.001 sec
 * total energy  :   -19.0100812 Eh     change       -0.5032860E-04 Eh
   gradient norm :     0.0045170 Eh/a0  converged?    E=F G=F D=F
   step length   :     0.0366753 a0

........................................................................
.............................. CYCLE   15 ..............................
........................................................................

 iter      E             dE          RMSdq      gap      omega  full diag
   1    -19.3579477 -0.193579E+02  0.464E-02    3.52       0.0  T
   2    -19.3579483 -0.611849E-06  0.271E-02    3.52       1.0  T
   3    -19.3579470  0.138169E-05  0.142E-02    3.52       1.8  T
   4    -19.3579486 -0.166131E-05  0.247E-03    3.52      10.5  T
   5    -19.3579487 -0.799375E-07  0.460E-04    3.52      56.1  T
   6    -19.3579487  0.130601E-09  0.270E-04    3.52      95.5  T
     SCC iter.                  ...        0 min,  0.002 sec
     gradient                   ...        0 min,  0.001 sec
 * total energy  :   -19.0101175 Eh     change       -0.3628204E-04 Eh
   gradient norm :     0.0029939 Eh/a0  converged?    E=F G=F D=F
   step length   :     0.0514346 a0

........................................................................
.............................. CYCLE   16 ..............................
........................................................................

 iter      E             dE          RMSdq      gap      omega  full diag
   1    -19.3582715 -0.193583E+02  0.188E-02    3.52       0.0  T
   2    -19.3582716 -0.122354E-06  0.108E-02    3.52       2.4  T
   3    -19.3582715  0.938207E-07  0.379E-03    3.52       6.8  T
   4    -19.3582716 -0.115237E-06  0.906E-04    3.52      28.5  T
   5    -19.3582716 -0.864811E-08  0.308E-04    3.52      83.7  T
     SCC iter.                  ...        0 min,  0.001 sec
     gradient                   ...        0 min,  0.001 sec
 * total energy  :   -19.0101255 Eh     change       -0.7994837E-05 Eh
   gradient norm :     0.0019729 Eh/a0  converged?    E=F G=F D=F
   step length   :     0.0197655 a0

........................................................................
.............................. CYCLE   17 ..............................
........................................................................

 iter      E             dE          RMSdq      gap      omega  full diag
   1    -19.3582678 -0.193583E+02  0.143E-02    3.51       0.0  T
   2    -19.3582678 -0.282635E-07  0.877E-03    3.51       2.9  T
   3    -19.3582677  0.110663E-06  0.310E-03    3.51       8.3  T
   4    -19.3582678 -0.125141E-06  0.651E-04    3.51      39.6  T
   5    -19.3582678 -0.315414E-08  0.270E-04    3.51      95.5  T
     SCC iter.                  ...        0 min,  0.001 sec
     gradient                   ...        0 min,  0.001 sec
 * total energy  :   -19.0101289 Eh     change       -0.3479338E-05 Eh
   gradient norm :     0.0014379 Eh/a0  converged?    E=T G=F D=F
   step length   :     0.0148001 a0

........................................................................
.............................. CYCLE   18 ..............................
........................................................................

 iter      E             dE          RMSdq      gap      omega  full diag
   1    -19.3578798 -0.193579E+02  0.119E-02    3.51       0.0  T
   2    -19.3578798 -0.233122E-07  0.701E-03    3.51       3.7  T
   3    -19.3578797  0.900921E-07  0.281E-03    3.51       9.2  T
   4    -19.3578798 -0.101420E-06  0.543E-04    3.51      47.5  T
   5    -19.3578798 -0.229736E-08  0.139E-04    3.51     186.3  T
     SCC iter.                  ...        0 min,  0.001 sec
     gradient                   ...        0 min,  0.001 sec
 * total energy  :   -19.0101314 Eh     change       -0.2431119E-05 Eh
   gradient norm :     0.0009118 Eh/a0  converged?    E=T G=T D=F
   step length   :     0.0118220 a0

   *** GEOMETRY OPTIMIZATION CONVERGED AFTER 18 CYCLES ***

------------------------------------------------------------------------
 total energy gain   :        -0.2779238 Eh     -174.3998 kcal/mol
 total RMSD          :         0.7855024 a0        0.4157 Å
 total power (kW/mol):       -40.5382671 (step)-8679.0989 (real)
------------------------------------------------------------------------

 L-ANCopt (total)              0 d,  0 h,  0 min,  0.084 sec
 setup                          ...        0 min,  0.000 sec (  0.164%)
 model hessian                  ...        0 min,  0.002 sec (  2.025%)
 ANC generation                 ...        0 min,  0.000 sec (  0.214%)
 coordinate transformation      ...        0 min,  0.000 sec (  0.052%)
 Rational function              ...        0 min,  0.000 sec (  0.034%)
 singlepoint calculation        ...        0 min,  0.081 sec ( 96.440%)
 optimization log               ...        0 min,  0.001 sec (  0.750%)
 hessian update                 ...        0 min,  0.000 sec (  0.052%)

================
 final structure:
================
15
 xtb: 6.7.1 (unknown)
C           -0.90203539820201       -1.38888729226622       -0.21200344910001
C           -1.50867851981732       -0.18997336419435       -0.19034107495267
C            0.52670368762102       -1.49999503194414       -0.28183196181168
C            1.31084009075556       -0.40968494403524       -0.32619392768243
C           -0.75545604609984        1.04019061637186        0.01289390768670
C            0.78030535236584        0.92074368160126       -0.06008591294238
C            0.08832587042961        1.18298542791615        1.24569731704341
H           -1.48324700011233       -2.29388640952535       -0.31085449149669
H           -2.57587769974313       -0.10164809466853       -0.33390487062876
H            0.94793316953402       -2.48368670351995       -0.43313337102307
H            2.35988292968014       -0.48559708926017       -0.57249750837703
H           -1.21436060222442        1.94521186829185       -0.36953341006691
H            1.33606098483359        1.74692557707017       -0.48863093554395
H            0.18747930388408        2.16641147163829        1.67658860613198
H            0.05863369360004        0.37602180274008        1.96167001520445

 Bond Distances (Angstroems)
 ---------------------------
C1-C2=1.3438         C1-C3=1.4348         C1-H8=1.0801         C2-C1=1.3438         C2-C5=1.4567         C2-H9=1.0804         
C3-C1=1.4348         C3-C4=1.3437         C3-H10=1.0807        C4-C3=1.3437         C4-C6=1.4568         C4-H11=1.0802        
C5-C2=1.4567         C5-C6=1.5421         C5-C7=1.5007         C5-H12=1.0844        C6-C4=1.4568         C6-C5=1.5421         
C6-C7=1.5009         C6-H13=1.0840        C7-C5=1.5007         C7-C6=1.5009         C7-H14=1.0783        C7-H15=1.0792        
H8-C1=1.0801         H9-C2=1.0804         H10-C3=1.0807        H11-C4=1.0802        H12-C5=1.0844        H13-C6=1.0840        
H14-C7=1.0783        H15-C7=1.0792        
 C  H  Rav=1.0809 sigma=0.0020  Rmin=1.0783  Rmax=1.0844     8
 C  C  Rav=1.4474 sigma=0.0675  Rmin=1.3437  Rmax=1.5421     8

 selected bond angles (degree)
 --------------------
C3-C1-C2=121.29                H8-C1-C2=120.40                H8-C1-C3=117.81                C5-C2-C1=121.48                
H9-C2-C1=121.11                H9-C2-C5=117.40                C4-C3-C1=121.32                H10-C3-C1=117.74               
H10-C3-C4=120.43               C6-C4-C3=121.50                H11-C4-C3=121.15               H11-C4-C6=117.35               
C6-C5-C2=116.29                C7-C5-C2=119.06                C7-C5-C6= 59.09                H12-C5-C2=115.90               
H12-C5-C6=118.00               H12-C5-C7=116.63               C5-C6-C4=116.23                C7-C6-C4=119.10                
C7-C6-C5= 59.08                H13-C6-C4=115.92               H13-C6-C5=118.05               H13-C6-C7=116.56               
C6-C7-C5= 61.83                H14-C7-C5=117.82               H14-C7-C6=117.69               H15-C7-C5=117.28               
H15-C7-C6=117.34               H15-C7-H14=114.80              

 selected dihedral angles (degree)
 ---------------------------------
C5-C2-C1-C3=348.45            C5-C2-C1-H8=176.70            H9-C2-C1-C3=167.80            H9-C2-C1-H8=356.05            
C4-C3-C1-C2=  0.10            C4-C3-C1-H8=172.05            H10-C3-C1-C2=188.24           H10-C3-C1-H8=  0.20           
C6-C4-C3-C1= 11.45            C6-C4-C3-H10=183.09           H11-C4-C3-C1=192.16           H11-C4-C3-H10=  3.80          
C6-C5-C2-C1= 10.91            C6-C5-C2-H9=191.54            C7-C5-C2-C1=303.31            C7-C5-C2-H9=123.93            
H12-C5-C2-C1=156.19           H12-C5-C2-H9=336.81           C5-C6-C4-C3=349.01            C5-C6-C4-H11=168.33           
C7-C6-C4-C3= 56.60            C7-C6-C4-H11=235.92           H13-C6-C4-C3=203.69           H13-C6-C4-H11= 23.01          
C4-C6-C5-C2=  0.08            C4-C6-C5-C7=109.69            C4-C6-C5-H12=215.55           C7-C6-C5-C2=250.39            
C7-C6-C5-H12=105.87           H13-C6-C5-C2=144.64           H13-C6-C5-C7=254.25           H13-C6-C5-H12=  0.12          
C6-C7-C5-C2=104.95            C6-C7-C5-H12=251.83           H14-C7-C5-C2=213.21           H14-C7-C5-C6=108.26           
H14-C7-C5-H12=  0.09          H15-C7-C5-C2=356.89           H15-C7-C5-C6=251.94           H15-C7-C5-H12=143.78          
C5-C7-C6-C4=255.15            C5-C7-C6-H13=108.26           H14-C7-C6-C4=146.67           H14-C7-C6-C5=251.52           
H14-C7-C6-H13=359.79          H15-C7-C6-C4=  3.12           H15-C7-C6-C5=107.97           H15-C7-C6-H13=216.23          
           -------------------------------------------------
          |                Final Singlepoint                |
           -------------------------------------------------

          ...................................................
          :                      SETUP                      :
          :.................................................:
          :  # basis functions                  36          :
          :  # atomic orbitals                  36          :
          :  # shells                           22          :
          :  # electrons                        36          :
          :  max. iterations                   250          :
          :  Hamiltonian                  GFN2-xTB          :
          :  restarted?                      false          :
          :  GBSA solvation                  false          :
          :  PC potential                    false          :
          :  electronic temp.          300.0000000     K    :
          :  accuracy                    1.0000000          :
          :  -> integral cutoff          0.2500000E+02      :
          :  -> integral neglect         0.1000000E-07      :
          :  -> SCF convergence          0.1000000E-05 Eh   :
          :  -> wf. convergence          0.1000000E-03 e    :
          :  Broyden damping             0.4000000          :
          :  net charge                          0          :
          :  unpaired electrons                  0          :
          ...................................................

 iter      E             dE          RMSdq      gap      omega  full diag
   1    -19.3578798 -0.193579E+02  0.487E-05    3.51       0.0  T
   2    -19.3578798 -0.542499E-11  0.271E-05    3.51     951.9  T
   3    -19.3578798 -0.859046E-11  0.171E-05    3.51    1511.8  T

   *** convergence criteria satisfied after 3 iterations ***

         #    Occupation            Energy/Eh            Energy/eV
      -------------------------------------------------------------
         1        2.0000           -0.6513760             -17.7248
       ...           ...                  ...                  ...
        12        2.0000           -0.4578455             -12.4586
        13        2.0000           -0.4500708             -12.2470
        14        2.0000           -0.4455241             -12.1233
        15        2.0000           -0.4319518             -11.7540
        16        2.0000           -0.4248444             -11.5606
        17        2.0000           -0.4006298             -10.9017
        18        2.0000           -0.3635994              -9.8940 (HOMO)
        19                         -0.2345796              -6.3832 (LUMO)
        20                         -0.1549203              -4.2156
        21                         -0.0264255              -0.7191
        22                          0.1005497               2.7361
        23                          0.1040720               2.8319
       ...                                ...                  ...
        36                          0.6738892              18.3375
      -------------------------------------------------------------
                  HL-Gap            0.1290198 Eh            3.5108 eV
             Fermi-level           -0.2990895 Eh           -8.1386 eV

 SCC (total)                   0 d,  0 h,  0 min,  0.003 sec
 SCC setup                      ...        0 min,  0.000 sec (  1.010%)
 Dispersion                     ...        0 min,  0.000 sec (  0.729%)
 classical contributions        ...        0 min,  0.000 sec (  0.348%)
 integral evaluation            ...        0 min,  0.000 sec ( 15.528%)
 iterations                     ...        0 min,  0.001 sec ( 34.567%)
 molecular gradient             ...        0 min,  0.001 sec ( 46.791%)
 printout                       ...        0 min,  0.000 sec (  0.870%)

         :::::::::::::::::::::::::::::::::::::::::::::::::::::
         ::                     SUMMARY                     ::
         :::::::::::::::::::::::::::::::::::::::::::::::::::::
         :: total energy             -19.010131375968 Eh    ::
         :: gradient norm              0.000915424282 Eh/a0 ::
         :: HOMO-LUMO gap              3.510808379465 eV    ::
         ::.................................................::
         :: SCC energy               -19.357858789258 Eh    ::
         :: -> isotropic ES            0.001596968814 Eh    ::
         :: -> anisotropic ES          0.003527497722 Eh    ::
         :: -> anisotropic XC          0.013009169195 Eh    ::
         :: -> dispersion             -0.010685273224 Eh    ::
         :: repulsion energy           0.347727413290 Eh    ::
         :: add. restraining           0.000000000000 Eh    ::
         :: total charge               0.000000000000 e     ::
         :::::::::::::::::::::::::::::::::::::::::::::::::::::

           ------------------------------------------------- 
          |                Numerical Hessian                |
           ------------------------------------------------- 
step length          :   0.00500
SCC accuracy         :   0.30000
Hessian scale factor :   1.00000
frozen atoms in %    :   0.00000    0
RMS gradient         :   0.00092
estimated CPU  time      0.01 min
estimated wall time      0.01 min

writing file <hessian>.

 projected vibrational frequencies (cm⁻¹)
eigval :       -0.00    -0.00     0.00     0.00     0.00     0.00
eigval :      229.91   272.58   424.66   485.71   577.95   583.69
eigval :      718.52   815.90   816.90   838.32   887.77   893.56
eigval :      902.83   918.39   989.72  1025.62  1050.66  1052.47
eigval :     1072.50  1099.95  1100.80  1190.90  1199.18  1220.13
eigval :     1297.23  1363.67  1374.60  1414.67  1444.00  1578.84
eigval :     1659.87  3025.14  3033.41  3066.60  3069.55  3079.92
eigval :     3088.44  3092.66  3109.51
           -------------------------------------------------
          |                Property Printout                |
           -------------------------------------------------

    * Orbital Energies and Occupations

         #    Occupation            Energy/Eh            Energy/eV
      -------------------------------------------------------------
         1        2.0000           -0.6513760             -17.7248
       ...           ...                  ...                  ...
         6        2.0000           -0.5575067             -15.1705
         7        2.0000           -0.5364725             -14.5982
         8        2.0000           -0.5025913             -13.6762
         9        2.0000           -0.5022545             -13.6670
        10        2.0000           -0.4973843             -13.5345
        11        2.0000           -0.4795050             -13.0480
        12        2.0000           -0.4578455             -12.4586
        13        2.0000           -0.4500708             -12.2471
        14        2.0000           -0.4455241             -12.1233
        15        2.0000           -0.4319519             -11.7540
        16        2.0000           -0.4248445             -11.5606
        17        2.0000           -0.4006298             -10.9017
        18        2.0000           -0.3635994              -9.8940 (HOMO)
        19                         -0.2345796              -6.3832 (LUMO)
        20                         -0.1549203              -4.2156
        21                         -0.0264255              -0.7191
        22                          0.1005497               2.7361
        23                          0.1040720               2.8319
        24                          0.1177899               3.2052
        25                          0.1386306               3.7723
        26                          0.1505060               4.0955
        27                          0.1741068               4.7377
        28                          0.1905082               5.1840
        29                          0.2905298               7.9057
       ...                                ...                  ...
        36                          0.6738891              18.3375
      -------------------------------------------------------------
                  HL-Gap            0.1290198 Eh            3.5108 eV
             Fermi-level           -0.2990895 Eh           -8.1386 eV

     #   Z          covCN         q      C6AA      α(0)
     1   6 C        2.907    -0.038    28.950     8.823
     2   6 C        2.901    -0.037    28.921     8.818
     3   6 C        2.907    -0.038    28.949     8.822
     4   6 C        2.901    -0.037    28.921     8.818
     5   6 C        3.865    -0.011    20.726     6.474
     6   6 C        3.865    -0.011    20.729     6.474
     7   6 C        3.809    -0.065    21.732     6.636
     8   1 H        0.926     0.025     2.661     2.551
     9   1 H        0.926     0.026     2.638     2.540
    10   1 H        0.926     0.025     2.663     2.552
    11   1 H        0.926     0.026     2.638     2.540
    12   1 H        0.925     0.027     2.624     2.533
    13   1 H        0.925     0.028     2.622     2.532
    14   1 H        0.926     0.037     2.491     2.468
    15   1 H        0.926     0.043     2.412     2.429

 Mol. C6AA /au·bohr⁶  :       2313.716517
 Mol. C8AA /au·bohr⁸  :      54860.381451
 Mol. α(0) /au        :         75.009323


Wiberg/Mayer (AO) data.
largest (>0.10) Wiberg bond orders for each atom

 ---------------------------------------------------------------------------
     #   Z sym  total        # sym  WBO       # sym  WBO       # sym  WBO
 ---------------------------------------------------------------------------
     1   6 C    3.991 --     2 C    1.741     3 C    1.176     8 H    0.970
     2   6 C    3.991 --     1 C    1.741     5 C    1.110     9 H    0.968
                             4 C    0.128
     3   6 C    3.991 --     4 C    1.742     1 C    1.176    10 H    0.970
     4   6 C    3.992 --     3 C    1.742     6 C    1.110    11 H    0.968
                             2 C    0.128
     5   6 C    3.952 --     2 C    1.110    12 H    0.972     7 C    0.936
                             6 C    0.864
     6   6 C    3.952 --     4 C    1.110    13 H    0.972     7 C    0.936
                             5 C    0.864
     7   6 C    3.933 --    15 H    0.979    14 H    0.978     5 C    0.936
                             6 C    0.936
     8   1 H    0.999 --     1 C    0.970
     9   1 H    0.999 --     2 C    0.968
    10   1 H    0.999 --     3 C    0.970
    11   1 H    0.999 --     4 C    0.968
    12   1 H    0.999 --     5 C    0.972
    13   1 H    0.999 --     6 C    0.972
    14   1 H    0.999 --     7 C    0.978
    15   1 H    0.998 --     7 C    0.979
 ---------------------------------------------------------------------------

Topologies differ in total number of bonds
Writing topology from bond orders to xtbtopo.mol

molecular dipole:
                 x           y           z       tot (Debye)
 q only:        0.018       0.186       0.071
   full:        0.020       0.250       0.011       0.637
molecular quadrupole (traceless):
                xx          xy          yy          xz          yz          zz
 q only:        0.017       0.020       0.503      -0.020       0.248      -0.520
  q+dip:        0.363       0.201       3.321      -0.196       0.019      -3.684
   full:       -0.045       0.122       1.941      -0.089       0.028      -1.896

           -------------------------------------------------
          |                Geometry Summary                 |
           -------------------------------------------------

      molecular mass/u    :       92.1386773
   center of mass at/Å    :       -0.0641579      -0.0354081       0.0368829
  moments of inertia/u·Å² :        0.1119274E+03   0.1458658E+03   0.2208895E+03
rotational constants/cm⁻¹ :        0.1506122E+00   0.1155694E+00   0.7631704E-01

 * 14 selected distances

     #   Z          #   Z                                           value/Å
     1   6 C        2   6 C                                       1.3438304
     3   6 C        4   6 C                                       1.3437315
     2   6 C        5   6 C                                       1.4566923
     4   6 C        6   6 C                                       1.4568189
     5   6 C        7   6 C                                       1.5007208
     6   6 C        7   6 C                                       1.5008919 (max)
     1   6 C        8   1 H                                       1.0800935
     2   6 C        9   1 H                                       1.0804287
     3   6 C       10   1 H                                       1.0807293
     4   6 C       11   1 H                                       1.0802403
     5   6 C       12   1 H                                       1.0843928
     6   6 C       13   1 H                                       1.0840166
     7   6 C       14   1 H                                       1.0782512 (min)
     7   6 C       15   1 H                                       1.0792076
Molecule has the following symmetry elements: (sigma) 
It seems to be the Cs point group

 * 2 distinct bonds (by element types)

   Z      Z             #   av. dist./Å        max./Å        min./Å
   1 H    6 C           8     1.0809200     1.0843928     1.0782512
   6 C    6 C           6     1.4337810     1.5008919     1.3437315

           -------------------------------------------------
          |               Frequency Printout                |
           -------------------------------------------------
 projected vibrational frequencies (cm⁻¹)
eigval :       -0.00    -0.00     0.00     0.00     0.00     0.00
eigval :      229.91   272.58   424.66   485.71   577.95   583.69
eigval :      718.52   815.90   816.90   838.32   887.77   893.56
eigval :      902.83   918.39   989.72  1025.62  1050.66  1052.47
eigval :     1072.50  1099.95  1100.80  1190.90  1199.18  1220.13
eigval :     1297.23  1363.67  1374.60  1414.67  1444.00  1578.84
eigval :     1659.87  3025.14  3033.41  3066.60  3069.55  3079.92
eigval :     3088.44  3092.66  3109.51
 reduced masses (amu)
   1: 10.03   2: 10.30   3: 10.40   4: 10.79   5: 10.27   6: 10.38   7:  8.93   8:  8.33
   9:  7.70  10: 10.62  11: 10.22  12: 10.00  13:  5.40  14:  7.75  15:  4.82  16:  5.77
  17:  8.49  18:  3.55  19:  5.22  20:  4.04  21:  8.27  22:  8.79  23:  6.52  24:  3.68
  25:  3.43  26:  4.44  27:  3.74  28:  1.75  29:  1.69  30:  3.33  31:  3.47  32:  6.71
  33:  7.19  34:  7.85  35:  5.21  36: 11.45  37: 11.37  38:  1.79  39:  1.81  40:  1.75
  41:  1.79  42:  1.88  43:  1.91  44:  1.46  45:  2.11
 IR intensities (km·mol⁻¹)
   1:  0.08   2:  0.07   3:  0.08   4:  0.02   5:  0.00   6:  0.04   7:  0.47   8:  0.60
   9:  1.84  10:  0.09  11:  0.66  12:  0.00  13: 16.20  14: 14.32  15:  0.63  16:  1.65
  17:  2.38  18:  1.45  19:  0.93  20:  0.69  21:  8.72  22:  2.91  23:  6.47  24:  4.20
  25:  0.11  26:  0.54  27:  0.09  28:  0.23  29:  0.06  30:  1.14  31:  0.10  32:  0.62
  33:  0.89  34:  4.64  35:  2.52  36:  4.17  37:  0.24  38: 17.96  39: 54.43  40:  5.24
  41: 19.72  42:110.20  43: 53.21  44: 25.26  45: 30.24
 Raman intensities (Ä⁴*amu⁻¹)
   1:  0.00   2:  0.00   3:  0.00   4:  0.00   5:  0.00   6:  0.00   7:  0.00   8:  0.00
   9:  0.00  10:  0.00  11:  0.00  12:  0.00  13:  0.00  14:  0.00  15:  0.00  16:  0.00
  17:  0.00  18:  0.00  19:  0.00  20:  0.00  21:  0.00  22:  0.00  23:  0.00  24:  0.00
  25:  0.00  26:  0.00  27:  0.00  28:  0.00  29:  0.00  30:  0.00  31:  0.00  32:  0.00
  33:  0.00  34:  0.00  35:  0.00  36:  0.00  37:  0.00  38:  0.00  39:  0.00  40:  0.00
  41:  0.00  42:  0.00  43:  0.00  44:  0.00  45:  0.00
 output can be read by thermo (or use thermo option).
 writing <g98.out> molden fake output.
 recommended (thermochemical) frequency scaling factor: 1.0
           -------------------------------------------------
          |             Thermodynamic Functions             |
           -------------------------------------------------

cs  symmetry found (for desy threshold:  0.10E+00) used in thermo

          ...................................................
          :                      SETUP                      :
          :.................................................:
          :  # frequencies                          39      :
          :  # imaginary freq.                       0      :
          :  linear?                             false      :
          :  only rotor calc.                    false      :
          :  symmetry                               cs      :
          :  rotational number                       1      :
          :  scaling factor                  1.0000000      :
          :  rotor cutoff                   50.0000000 cm⁻¹ :
          :  imag. cutoff                  -20.0000000 cm⁻¹ :
          :.................................................:

    mode    ω/cm⁻¹     T·S(HO)/kcal·mol⁻¹    T·S(FR)/kcal·mol⁻¹   T·S(vib)
   ------------------------------------------------------------------------
       1    229.91    -0.56042 ( 99.78%)    -0.60445 (  0.22%)    -0.56052
       2    272.58    -0.47102 ( 99.89%)    -0.55404 (  0.11%)    -0.47111
Note: The following floating-point exceptions are signalling: IEEE_UNDERFLOW_FLAG
normal termination of xtb
   ------------------------------------------------------------------------

   temp. (K)  partition function   enthalpy   heat capacity  entropy
                                   cal/mol     cal/K/mol   cal/K/mol   J/K/mol
 298.15  VIB   3.59                 1679.918     16.526      8.174
         ROT  0.145E+06              888.752      2.981     26.599
         INT  0.521E+06             2568.670     19.506     34.774
         TR   0.856E+27             1481.254      4.968     39.456
         TOT                        4049.9240    24.4746    74.2298   310.5775

       T/K    H(0)-H(T)+PV         H(T)/Eh          T*S/Eh         G(T)/Eh
   ------------------------------------------------------------------------
    298.15    0.645396E-02    0.131905E+00    0.352690E-01    0.966362E-01
   ------------------------------------------------------------------------

         :::::::::::::::::::::::::::::::::::::::::::::::::::::
         ::                  THERMODYNAMIC                  ::
         :::::::::::::::::::::::::::::::::::::::::::::::::::::
         :: total free energy         -18.913495129009 Eh   ::
         ::.................................................::
         :: total energy              -19.010131375969 Eh   ::
         :: zero point energy           0.125451251883 Eh   ::
         :: G(RRHO) w/o ZPVE           -0.028815004923 Eh   ::
         :: G(RRHO) contrib.            0.096636246960 Eh   ::
         :::::::::::::::::::::::::::::::::::::::::::::::::::::

optimized geometry written to: xtbopt.xyz


           -------------------------------------------------
          | TOTAL ENERGY              -19.010131375969 Eh   |
          | TOTAL ENTHALPY            -18.878226159439 Eh   |
          | TOTAL FREE ENERGY         -18.913495129009 Eh   |
          | GRADIENT NORM               0.000915456266 Eh/α |
          | HOMO-LUMO GAP               3.510808445911 eV   |
           -------------------------------------------------

------------------------------------------------------------------------
 * finished run on 2026/09/04 at 18:34:46.105     
------------------------------------------------------------------------
 total:
 * wall-time:     0 d,  0 h,  0 min,  0.447 sec
 *  cpu-time:     0 d,  0 h,  0 min,  0.576 sec
 * ratio c/w:     1.287 speedup
 SCF:
 * wall-time:     0 d,  0 h,  0 min,  0.006 sec
 *  cpu-time:     0 d,  0 h,  0 min,  0.008 sec
 * ratio c/w:     1.386 speedup
 ANC optimizer:
 * wall-time:     0 d,  0 h,  0 min,  0.088 sec
 *  cpu-time:     0 d,  0 h,  0 min,  0.115 sec
 * ratio c/w:     1.317 speedup
 analytical hessian:
 * wall-time:     0 d,  0 h,  0 min,  0.350 sec
 *  cpu-time:     0 d,  0 h,  0 min,  0.448 sec
 * ratio c/w:     1.282 speedup

