15
 energy: -19.010131375968 gnorm: 0.000915424282 xtb: 6.7.1 (unknown)
C           -0.90204341040612       -1.38888293921072       -0.21199787633525
C           -1.50868017890193       -0.18996579697357       -0.19033547710365
C            0.52669484988240       -1.49999828161977       -0.28183118236703
C            1.31083680699216       -0.40969237688150       -0.32619778833994
C           -0.75545055465754        1.04019459441850        0.01289472925056
C            0.78030996360747        0.92073949104936       -0.06009024372232
C            0.08833641283319        1.18298713955416        1.24569494401941
H           -1.48326009591985       -2.29387918576503       -0.31084531039852
H           -2.57587939747062       -0.10163519017072       -0.33389570170743
H            0.94791865305257       -2.48369242280102       -0.43313234507970
H            2.35987838865743       -0.48561044475708       -0.57250489839128
H           -1.21435170702501        1.94521758168875       -0.36953256618111
H            1.33606842602923        1.74691772863167       -0.48863864823318
H            0.18749649958471        2.16641341613445        1.67658417059167
H            0.05864250998020        0.37602491945326        1.96166915423746
