9
 energy: -11.391865950463 gnorm: 0.000818855853 xtb: 6.7.1 (unknown)
C            1.20524721100011       -0.42190189465678        0.01774459867200
C            0.02461674429710        0.53684661875380        0.00923318998990
O           -1.16683392912405       -0.22202681756336        0.00621082849972
H           -1.92291657310032        0.37278665554012       -0.00668724677606
H            0.06276777577128        1.18276745223061        0.89892542009011
H            0.07021132863739        1.17885056400925       -0.88286516617103
H            2.13925188544581        0.13320170914675        0.01574370972875
H            1.16251879242610       -1.05127848858771        0.90239494879562
H            1.16481855202438       -1.06097602830523       -0.86071075821816
9
 energy: -11.394337631727 gnorm: 0.000555181054 xtb: 6.7.1 (unknown)
C            1.25024263028129       -0.55800839816632        0.00632594809853
C            0.11371495864308        0.45711708231082        0.07110177439217
O           -1.15612851488919       -0.14869630281460        0.13647046608057
H           -1.25826547770486       -0.73322568729148       -0.62320207643962
H            0.19359635507751        1.05688465227485        0.98031651739073
H            0.16917746752121        1.13309838463889       -0.79531842035096
H            2.20799976238755       -0.04556302763642        0.01738897794158
H            1.20053830734483       -1.22818876598118        0.86041833152459
H            1.18276093988163       -1.14997227945153       -0.90536499930003
9
 energy: -11.394332668322 gnorm: 0.000962164347 xtb: 6.7.1 (unknown)
C            1.27913259065527       -0.51753047516059        0.07855416363206
C            0.12016551235158        0.47325527042462        0.07438474380357
O           -1.13707791470501       -0.15666953389437        0.15555141999129
H           -1.20041094190772       -0.80810720165977       -0.55301488457482
H            0.17413703288712        1.12274276684142        0.95111541843900
H            0.17250710451114        1.10291220801337       -0.82691190080648
H            2.22506224688812        0.01579134711612        0.06014895390247
H            1.23962935738049       -1.13586765669897        0.97203598956541
H            1.22990139321705       -1.16580440950641       -0.79557410781357
9
 energy: -11.394338010755 gnorm: 0.000423587340 xtb: 6.7.1 (unknown)
C            1.12083834529407       -0.41095771267623        0.00297787146655
C            0.05713914448464        0.68083486930859        0.05465751273229
O           -1.24813914589107        0.16483555030753        0.16952335790145
H           -1.40408026035178       -0.44530945172275       -0.56050176989834
H            0.19789084528912        1.30598076782135        0.93916371276339
H            0.13713227276474        1.32039875293179       -0.83753698613048
H            2.11098529227312        0.03437050913724       -0.03378511782573
H            1.05061753822282       -1.04257431308103        0.88539126686660
H            0.98597443226807       -1.03287467074930       -0.88124310396982
9
 energy: -11.394338719478 gnorm: 0.000691383531 xtb: 6.7.1 (unknown)
C            1.29406198911513       -0.44544732956795       -0.03394098539424
C            0.09638915194265        0.44873036619311        0.27099823372960
O           -1.09705916903788       -0.02138677735913       -0.31054758349493
H           -1.24811582727021       -0.92651273712297       -0.01464207377178
H           -0.02417686556817        0.55039384132719        1.36009313574362
H            0.25005586776396        1.44367266046445       -0.15209817559829
H            1.41388455376873       -0.55376102940046       -1.10950378438145
H            2.19934754113050       -0.00976616473033        0.38044268495139
H            1.15336561982139       -1.43468542121683        0.40076366972586
