10
Properties=species:S:1:pos:R:3 energy:=T -11.557969664172=T gnorm:=T 0.000184534898=T xtb:=T 6.7.1=T (unknown)=T pbc="F F F"
C       -0.75472378       0.77479279       0.00018340
C       -0.75348600      -0.77597579      -0.00015075
C        0.74474347       0.66503798       0.00002478
C        0.74580359      -0.66382837      -0.00002204
H       -1.18863929       1.23240696       0.88803336
H       -1.18886862       1.23281008      -0.88733329
H       -1.18668827      -1.23428149      -0.88799164
H       -1.18688140      -1.23468562       0.88737436
H        1.51033844       1.41985787       0.00000987
H        1.51260187      -1.41742526      -0.00002202
