 Entering Gaussian System
 *********************************************
 Gaussian 98:
 frequency output generated by the xtb code
 *********************************************
                         Standard orientation:
 --------------------------------------------------------------------
  Center     Atomic     Atomic              Coordinates (Angstroms)
  Number     Number      Type              X           Y           Z
 --------------------------------------------------------------------
    1          6             0       -0.852268   -1.212592   -0.634180
    2          6             0       -0.302730   -1.727083    0.472488
    3          6             0       -0.298070    0.111688   -0.791274
    4          6             0        0.676774   -0.789031    1.154877
    5          6             0       -0.551085    1.428718   -0.821385
    6          6             0        0.941007    0.245628    0.057017
    7          6             0        0.612125    1.768465    0.080825
    8          1             0       -1.611820   -1.664030   -1.245609
    9          1             0       -0.545484   -2.681138    0.909092
   10          1             0        1.573498   -1.306671    1.497197
   11          1             0        0.190713   -0.341493    2.026274
   12          1             0       -1.310708    2.042611   -1.268516
   13          1             0        1.880048    0.036633   -0.456527
   14          1             0        1.389448    2.421352   -0.318791
   15          1             0        0.300317    2.136461    1.056639
 --------------------------------------------------------------------
     1 basis functions        1 primitive gaussians
     1 alpha electrons        1 beta electrons

 Harmonic frequencies (cm**-1), IR intensities (km*mol⁻¹),
 Raman scattering activities (A**4/amu), Raman depolarization ratios,
 reduced masses (AMU), force constants (mDyne/A) and normal coordinates:
                      1                      2                      3
                        a                      a                      a 
 Frequencies --   189.6308               237.5763               391.0946
 Red. masses --     7.0730                 9.4450                 6.9112
 Frc consts  --     0.0000                 0.0000                 0.0000
 IR Inten    --     0.3963                 0.6382                 1.0593
 Raman Activ --     0.0000                 0.0000                 0.0000
 Depolar     --     0.0000                 0.0000                 0.0000
 Atom AN      X      Y      Z        X      Y      Z        X      Y      Z
   1   6     0.11  -0.11  -0.12     0.10  -0.02  -0.14    -0.13  -0.01   0.16
   2   6     0.14  -0.10  -0.14    -0.31   0.28   0.18     0.24  -0.01  -0.01
   3   6    -0.10   0.02   0.09     0.30  -0.11  -0.29    -0.14  -0.01  -0.13
   4   6    -0.31   0.22   0.10    -0.00   0.15  -0.10    -0.07   0.30  -0.04
   5   6    -0.16   0.01   0.37    -0.18  -0.19   0.31     0.18   0.08  -0.10
   6   6     0.02  -0.05  -0.07     0.25  -0.03  -0.21     0.01  -0.14  -0.30
   7   6     0.29  -0.01  -0.20    -0.08  -0.12   0.14    -0.02  -0.25   0.29
   8   1     0.10  -0.07  -0.09     0.02  -0.00  -0.04    -0.06  -0.04   0.10
   9   1     0.11  -0.07  -0.08    -0.20   0.15   0.15     0.13  -0.01   0.00
  10   1    -0.12   0.14   0.23    -0.04  -0.02  -0.03    -0.05   0.19   0.20
  11   1    -0.26   0.13  -0.10     0.07   0.13  -0.03    -0.18   0.20  -0.16
  12   1    -0.10   0.01   0.21    -0.15  -0.09   0.21     0.08   0.08  -0.01
  13   1    -0.01  -0.12  -0.00     0.12   0.03   0.01    -0.02  -0.05  -0.11
  14   1     0.06  -0.09  -0.24    -0.10   0.05   0.03     0.00   0.06   0.32
  15   1     0.26   0.10  -0.04     0.01  -0.11   0.08    -0.14  -0.30   0.13
                      4                      5                      6
                        a                      a                      a 
 Frequencies --   466.2005               633.2215               694.1255
 Red. masses --     8.4047                 9.5478                 9.1853
 Frc consts  --     0.0000                 0.0000                 0.0000
 IR Inten    --     5.0121                 3.2738                 1.7917
 Raman Activ --     0.0000                 0.0000                 0.0000
 Depolar     --     0.0000                 0.0000                 0.0000
 Atom AN      X      Y      Z        X      Y      Z        X      Y      Z
   1   6    -0.35   0.29   0.24     0.01  -0.19  -0.04    -0.01  -0.28   0.17
   2   6     0.14  -0.18  -0.24    -0.28  -0.19   0.07    -0.05  -0.35   0.15
   3   6     0.35  -0.10  -0.03    -0.07  -0.02   0.55     0.07  -0.07  -0.33
   4   6    -0.08  -0.05  -0.04    -0.08   0.02  -0.26    -0.14  -0.02  -0.30
   5   6    -0.05  -0.21  -0.00     0.17  -0.04  -0.14     0.13   0.08   0.23
   6   6     0.27   0.08   0.10     0.30   0.15  -0.13    -0.13   0.21  -0.06
   7   6    -0.11   0.09  -0.09     0.03   0.24  -0.03     0.08   0.31   0.15
   8   1    -0.26   0.24   0.15     0.09  -0.01  -0.15    -0.06  -0.07   0.11
   9   1     0.01  -0.04  -0.06     0.01  -0.06   0.04    -0.08  -0.02   0.18
  10   1    -0.05   0.05   0.16    -0.08  -0.04   0.01     0.00   0.08  -0.07
  11   1    -0.20  -0.02  -0.11    -0.03   0.10  -0.13    -0.08  -0.03  -0.09
  12   1    -0.11  -0.14   0.04    -0.12  -0.10   0.12     0.24   0.12  -0.16
  13   1     0.14   0.07   0.13     0.04   0.05  -0.12     0.01   0.14   0.04
  14   1    -0.07   0.06  -0.06    -0.04   0.21   0.14     0.02   0.03  -0.06
  15   1    -0.05   0.05  -0.04    -0.14  -0.08   0.00     0.11   0.17   0.04
                      7                      8                      9
                        a                      a                      a 
 Frequencies --   728.3808               746.3938               767.1065
 Red. masses --     9.9590                 4.3984                 3.6042
 Frc consts  --     0.0000                 0.0000                 0.0000
 IR Inten    --     4.8165                 1.9702                21.3870
 Raman Activ --     0.0000                 0.0000                 0.0000
 Depolar     --     0.0000                 0.0000                 0.0000
 Atom AN      X      Y      Z        X      Y      Z        X      Y      Z
   1   6    -0.38  -0.19  -0.26    -0.24  -0.10   0.09    -0.15   0.14   0.21
   2   6     0.04   0.30  -0.23     0.04   0.02  -0.00    -0.15  -0.00   0.11
   3   6    -0.08  -0.26   0.20    -0.00  -0.09  -0.26     0.14   0.02  -0.10
   4   6     0.12   0.30  -0.07    -0.10   0.10   0.02    -0.11   0.01   0.03
   5   6     0.14  -0.29   0.15     0.25  -0.01  -0.13    -0.12  -0.01   0.15
   6   6    -0.01   0.11   0.17    -0.13   0.13   0.08     0.14  -0.03  -0.09
   7   6     0.05  -0.01   0.15     0.12   0.05   0.04    -0.04  -0.00  -0.06
   8   1    -0.11  -0.07  -0.06     0.09  -0.18  -0.06     0.31  -0.14  -0.25
   9   1     0.12   0.09   0.02     0.22  -0.08  -0.08     0.44  -0.28  -0.32
  10   1     0.03   0.03  -0.08     0.04  -0.01  -0.22    -0.06  -0.12  -0.10
  11   1     0.06   0.03   0.02     0.13  -0.09   0.15     0.14   0.06   0.07
  12   1     0.21  -0.07  -0.23    -0.33  -0.05   0.56     0.20   0.04  -0.29
  13   1    -0.02   0.07  -0.00     0.05   0.04   0.16     0.06   0.00   0.02
  14   1     0.01  -0.06  -0.06     0.11  -0.03   0.08    -0.08   0.08  -0.01
  15   1     0.07   0.10   0.02    -0.08   0.07  -0.04     0.01  -0.09   0.02
                     10                     11                     12
                        a                      a                      a 
 Frequencies --   858.0995               870.8435               900.6411
 Red. masses --     4.0911                 6.8142                 5.4297
 Frc consts  --     0.0000                 0.0000                 0.0000
 IR Inten    --     0.4864                 0.9731                 0.2329
 Raman Activ --     0.0000                 0.0000                 0.0000
 Depolar     --     0.0000                 0.0000                 0.0000
 Atom AN      X      Y      Z        X      Y      Z        X      Y      Z
   1   6    -0.29   0.08   0.12     0.03   0.23   0.20     0.15   0.08   0.03
   2   6     0.23  -0.06  -0.19     0.03  -0.12   0.02     0.08  -0.17  -0.07
   3   6    -0.03  -0.01  -0.06     0.08   0.05   0.15     0.11  -0.02   0.13
   4   6     0.05  -0.07   0.16    -0.03   0.15  -0.36    -0.30   0.28  -0.03
   5   6     0.00  -0.00   0.09    -0.07  -0.03  -0.18    -0.09  -0.10   0.09
   6   6     0.04  -0.03  -0.02    -0.08   0.06   0.10    -0.15   0.11  -0.02
   7   6     0.04   0.14  -0.11    -0.07  -0.36   0.20     0.20  -0.08  -0.16
   8   1     0.39  -0.29  -0.32     0.29   0.02  -0.26    -0.09   0.23   0.03
   9   1    -0.41   0.24   0.26    -0.10   0.05   0.13    -0.07   0.03   0.10
  10   1     0.00  -0.03   0.06     0.02   0.10  -0.10     0.09   0.10  -0.40
  11   1    -0.03  -0.07   0.05     0.01   0.08  -0.11     0.13  -0.21   0.25
  12   1     0.05   0.02  -0.02    -0.08  -0.09  -0.04     0.02  -0.09  -0.13
  13   1    -0.02  -0.06  -0.04     0.00   0.12   0.02    -0.06  -0.17   0.05
  14   1    -0.07   0.18   0.06     0.14  -0.38  -0.12     0.02   0.14   0.17
  15   1    -0.06  -0.10   0.00     0.13   0.16  -0.00    -0.02  -0.33   0.05
                     13                     14                     15
                        a                      a                      a 
 Frequencies --   947.5231               977.2314              1005.6599
 Red. masses --     6.6431                 7.1598                 5.6853
 Frc consts  --     0.0000                 0.0000                 0.0000
 IR Inten    --     3.5541                 9.4143                 1.0536
 Raman Activ --     0.0000                 0.0000                 0.0000
 Depolar     --     0.0000                 0.0000                 0.0000
 Atom AN      X      Y      Z        X      Y      Z        X      Y      Z
   1   6    -0.05  -0.22  -0.02     0.09   0.07   0.10     0.02   0.03  -0.00
   2   6     0.12   0.10  -0.02     0.23   0.40   0.05    -0.10   0.11   0.08
   3   6    -0.09   0.13   0.07     0.02   0.01   0.03     0.03  -0.03  -0.06
   4   6    -0.18  -0.02  -0.14    -0.29  -0.28  -0.24     0.18  -0.10  -0.20
   5   6    -0.14   0.24  -0.05    -0.08  -0.10  -0.06    -0.17  -0.07   0.22
   6   6     0.35   0.08   0.15    -0.07  -0.04  -0.05    -0.16   0.11   0.23
   7   6    -0.08  -0.29  -0.17     0.15   0.18   0.14     0.23  -0.08  -0.28
   8   1    -0.07  -0.17   0.14     0.04  -0.20   0.18     0.06   0.00  -0.05
   9   1     0.08   0.11   0.21     0.16   0.12   0.09     0.08  -0.01  -0.01
  10   1    -0.11  -0.16  -0.09    -0.18  -0.23  -0.01     0.04   0.10   0.15
  11   1    -0.03  -0.14   0.04    -0.12  -0.12  -0.06    -0.17  -0.01  -0.18
  12   1     0.13   0.30   0.02    -0.17  -0.31  -0.17     0.05   0.04  -0.01
  13   1     0.26   0.12   0.31    -0.07  -0.11  -0.07    -0.06   0.07   0.02
  14   1    -0.03  -0.05  -0.01     0.07   0.03   0.06     0.30  -0.05   0.36
  15   1    -0.03  -0.11  -0.03     0.08  -0.00   0.07    -0.43  -0.04  -0.22
                     16                     17                     18
                        a                      a                      a 
 Frequencies --  1009.2867              1059.9251              1084.8260
 Red. masses --     7.3649                 3.4489                 3.4234
 Frc consts  --     0.0000                 0.0000                 0.0000
 IR Inten    --     0.9384                 2.5266                 0.4749
 Raman Activ --     0.0000                 0.0000                 0.0000
 Depolar     --     0.0000                 0.0000                 0.0000
 Atom AN      X      Y      Z        X      Y      Z        X      Y      Z
   1   6    -0.17  -0.19  -0.08    -0.03   0.01  -0.00     0.15   0.17   0.08
   2   6    -0.14  -0.15  -0.03    -0.13   0.14   0.12    -0.04   0.08  -0.03
   3   6    -0.00   0.11  -0.10     0.06  -0.03   0.01    -0.19  -0.08   0.08
   4   6     0.19   0.02   0.20     0.18  -0.10  -0.15    -0.04  -0.01  -0.03
   5   6    -0.37   0.14  -0.23     0.11   0.01  -0.08     0.13  -0.15   0.07
   6   6     0.12   0.18   0.01    -0.18   0.10   0.15    -0.00   0.18  -0.08
   7   6     0.29   0.04   0.15    -0.05  -0.07  -0.10     0.04  -0.11  -0.05
   8   1    -0.05  -0.11   0.01     0.08   0.02  -0.12     0.06  -0.36   0.30
   9   1    -0.05  -0.06  -0.04     0.17  -0.01   0.04    -0.41  -0.10  -0.49
  10   1     0.07   0.07   0.10     0.15   0.26   0.11     0.06   0.12  -0.03
  11   1    -0.01  -0.00   0.02    -0.31  -0.29  -0.09    -0.04  -0.04  -0.01
  12   1    -0.23  -0.24  -0.25    -0.00   0.05   0.11     0.05  -0.06  -0.02
  13   1     0.09   0.08   0.10    -0.04  -0.06   0.08     0.13   0.25   0.13
  14   1     0.21  -0.07   0.16    -0.25   0.18  -0.16    -0.04   0.02  -0.02
  15   1     0.23  -0.16   0.15     0.35  -0.35   0.21     0.03  -0.08   0.01
                     19                     20                     21
                        a                      a                      a 
 Frequencies --  1116.4440              1126.1739              1153.8802
 Red. masses --     4.8613                 4.7525                 4.2733
 Frc consts  --     0.0000                 0.0000                 0.0000
 IR Inten    --     1.9776                 1.0815                 1.5545
 Raman Activ --     0.0000                 0.0000                 0.0000
 Depolar     --     0.0000                 0.0000                 0.0000
 Atom AN      X      Y      Z        X      Y      Z        X      Y      Z
   1   6    -0.07  -0.05  -0.03    -0.01  -0.02   0.04    -0.01  -0.02   0.02
   2   6    -0.13  -0.06  -0.05     0.02  -0.05  -0.05    -0.06   0.09   0.07
   3   6     0.25   0.16   0.03     0.16  -0.08  -0.05    -0.02  -0.03   0.02
   4   6     0.03   0.16  -0.17    -0.05  -0.03   0.07    -0.06  -0.02   0.16
   5   6    -0.07   0.14  -0.02    -0.08  -0.08  -0.10    -0.06  -0.07  -0.03
   6   6     0.14  -0.21   0.28     0.03   0.46   0.16     0.27   0.16  -0.33
   7   6    -0.07   0.02   0.04     0.00  -0.14  -0.03    -0.04  -0.03   0.17
   8   1    -0.00  -0.41   0.26    -0.03  -0.07   0.09     0.04   0.04  -0.08
   9   1    -0.06  -0.04  -0.09    -0.05  -0.02  -0.07     0.03  -0.01  -0.03
  10   1     0.15   0.24  -0.11    -0.18  -0.27   0.06     0.13   0.18  -0.04
  11   1     0.01  -0.01  -0.02     0.05   0.09   0.00    -0.31  -0.56   0.17
  12   1    -0.05  -0.00  -0.02     0.09   0.25   0.16     0.07   0.10   0.00
  13   1    -0.17  -0.46  -0.15    -0.32   0.00  -0.51    -0.02  -0.08  -0.22
  14   1    -0.07   0.03  -0.05     0.03  -0.06   0.02     0.12  -0.18   0.01
  15   1    -0.12   0.11  -0.06     0.15  -0.15   0.08    -0.13   0.24  -0.09
                     22                     23                     24
                        a                      a                      a 
 Frequencies --  1181.4973              1193.3509              1226.8088
 Red. masses --     7.0155                 7.3804                 6.5897
 Frc consts  --     0.0000                 0.0000                 0.0000
 IR Inten    --     5.9335                 3.6446                 3.0325
 Raman Activ --     0.0000                 0.0000                 0.0000
 Depolar     --     0.0000                 0.0000                 0.0000
 Atom AN      X      Y      Z        X      Y      Z        X      Y      Z
   1   6    -0.08  -0.06  -0.03     0.09   0.04   0.09    -0.06   0.01  -0.07
   2   6     0.05   0.11  -0.03     0.06   0.06   0.05     0.00   0.03  -0.03
   3   6     0.38  -0.06   0.28    -0.26  -0.17  -0.10     0.22   0.04   0.14
   4   6    -0.05  -0.09   0.03     0.04   0.07  -0.17    -0.12  -0.20   0.10
   5   6    -0.14  -0.06  -0.10    -0.31  -0.25  -0.26    -0.20  -0.03  -0.16
   6   6    -0.20  -0.18  -0.24     0.13  -0.06   0.16    -0.19   0.03  -0.14
   7   6    -0.18   0.29  -0.07     0.24   0.19   0.22     0.39  -0.20   0.20
   8   1    -0.00  -0.10   0.04     0.03   0.18  -0.10    -0.01  -0.09   0.05
   9   1    -0.03   0.02  -0.06    -0.14  -0.03  -0.18     0.10   0.04   0.11
  10   1     0.08   0.13  -0.02    -0.04  -0.05  -0.02     0.13   0.20  -0.01
  11   1     0.06   0.09  -0.01     0.01   0.03  -0.05     0.09   0.13  -0.00
  12   1     0.14   0.32   0.15     0.13   0.34   0.12     0.03   0.15   0.03
  13   1     0.07   0.05   0.13     0.05  -0.31   0.20     0.00   0.26  -0.04
  14   1     0.30  -0.21   0.19    -0.05   0.15   0.02    -0.30   0.29  -0.18
  15   1     0.18  -0.10   0.12     0.03   0.09   0.04    -0.19   0.16  -0.12
                     25                     26                     27
                        a                      a                      a 
 Frequencies --  1269.0652              1274.7950              1303.4565
 Red. masses --     6.4008                 7.1389                 5.7474
 Frc consts  --     0.0000                 0.0000                 0.0000
 IR Inten    --     0.1466                 2.3794                 0.9576
 Raman Activ --     0.0000                 0.0000                 0.0000
 Depolar     --     0.0000                 0.0000                 0.0000
 Atom AN      X      Y      Z        X      Y      Z        X      Y      Z
   1   6     0.03   0.01   0.04    -0.16  -0.46   0.13    -0.01   0.09  -0.06
   2   6    -0.12  -0.12  -0.07     0.24   0.23   0.14    -0.05  -0.06  -0.04
   3   6     0.21   0.04   0.12     0.24   0.08   0.06     0.01  -0.02   0.08
   4   6     0.30   0.39  -0.02    -0.04  -0.05  -0.08     0.09  -0.17   0.05
   5   6    -0.05   0.02  -0.03     0.02   0.25   0.04     0.08  -0.03   0.05
   6   6    -0.29  -0.12  -0.17    -0.10   0.08  -0.05    -0.11   0.49  -0.28
   7   6     0.09  -0.02   0.06    -0.00  -0.13  -0.01    -0.06  -0.13   0.05
   8   1     0.01  -0.12   0.09    -0.05   0.26  -0.23     0.00  -0.08   0.05
   9   1    -0.02  -0.04  -0.02    -0.32  -0.04  -0.40     0.07   0.02   0.11
  10   1    -0.28  -0.47   0.07    -0.04  -0.04  -0.01    -0.01  -0.04   0.13
  11   1    -0.22  -0.28   0.02    -0.01   0.02  -0.04     0.11   0.16  -0.04
  12   1     0.00   0.05   0.03    -0.07  -0.08  -0.06     0.04  -0.03  -0.03
  13   1     0.03   0.04   0.12    -0.03  -0.12   0.03     0.05  -0.58   0.36
  14   1    -0.07   0.06  -0.06    -0.08   0.02  -0.07    -0.01  -0.08  -0.04
  15   1    -0.08   0.05  -0.04    -0.09   0.03  -0.05    -0.07   0.04  -0.03
                     28                     29                     30
                        a                      a                      a 
 Frequencies --  1452.1832              1462.2671              1599.8040
 Red. masses --     2.1125                 2.1005                11.3456
 Frc consts  --     0.0000                 0.0000                 0.0000
 IR Inten    --     0.4217                 2.9379                 5.4641
 Raman Activ --     0.0000                 0.0000                 0.0000
 Depolar     --     0.0000                 0.0000                 0.0000
 Atom AN      X      Y      Z        X      Y      Z        X      Y      Z
   1   6     0.01   0.01   0.00    -0.02   0.02  -0.04    -0.25   0.30  -0.53
   2   6    -0.01   0.01  -0.01     0.02  -0.02   0.04     0.32  -0.20   0.60
   3   6     0.02  -0.04   0.02     0.02  -0.02   0.02     0.03  -0.06   0.03
   4   6     0.03  -0.01   0.09    -0.07   0.05  -0.27    -0.03   0.02  -0.05
   5   6     0.00   0.04   0.00    -0.01   0.02  -0.00    -0.02   0.03   0.00
   6   6    -0.01   0.02  -0.02    -0.02  -0.03  -0.01     0.01   0.01   0.01
   7   6    -0.11  -0.24  -0.13    -0.03  -0.08  -0.05     0.01   0.01  -0.00
   8   1     0.00  -0.01   0.00    -0.01  -0.01  -0.00    -0.07  -0.10  -0.04
   9   1     0.01   0.00   0.01    -0.02  -0.01  -0.02    -0.08  -0.13  -0.03
  10   1     0.05  -0.06  -0.22    -0.15   0.15   0.60    -0.03  -0.08  -0.07
  11   1    -0.16   0.08  -0.13     0.44  -0.25   0.37    -0.08  -0.03  -0.03
  12   1    -0.01  -0.02  -0.01    -0.01  -0.00  -0.00    -0.01   0.00  -0.00
  13   1    -0.00  -0.04   0.01    -0.01   0.02  -0.02    -0.00   0.00  -0.01
  14   1    -0.04   0.35   0.52    -0.02   0.13   0.18     0.00  -0.00  -0.01
  15   1     0.41   0.48  -0.06     0.15   0.17  -0.02    -0.02  -0.01  -0.00
                     31                     32                     33
                        a                      a                      a 
 Frequencies --  1686.7794              2944.5926              2958.1064
 Red. masses --    11.6869                 1.8541                 1.8303
 Frc consts  --     0.0000                 0.0000                 0.0000
 IR Inten    --     1.3868                17.1711                25.0876
 Raman Activ --     0.0000                 0.0000                 0.0000
 Depolar     --     0.0000                 0.0000                 0.0000
 Atom AN      X      Y      Z        X      Y      Z        X      Y      Z
   1   6    -0.08  -0.13  -0.02     0.00  -0.00   0.00    -0.00   0.00   0.00
   2   6     0.05  -0.04   0.08    -0.00  -0.00  -0.01     0.00   0.00   0.00
   3   6    -0.03   0.78  -0.06    -0.00   0.00   0.00    -0.00   0.00   0.00
   4   6     0.01  -0.01   0.01     0.17  -0.13  -0.17    -0.01   0.01   0.04
   5   6     0.08  -0.57  -0.01     0.00  -0.00   0.00     0.00   0.00  -0.00
   6   6    -0.03   0.00  -0.01    -0.04   0.01   0.02    -0.14   0.03   0.07
   7   6    -0.02  -0.02  -0.02    -0.00   0.00   0.01     0.15   0.09  -0.13
   8   1    -0.04  -0.00  -0.02    -0.00  -0.00  -0.00    -0.00   0.00  -0.00
   9   1    -0.02  -0.02  -0.00    -0.00  -0.00   0.00    -0.00  -0.00   0.00
  10   1    -0.01  -0.01   0.01    -0.20   0.11  -0.11    -0.05   0.03  -0.01
  11   1    -0.00  -0.00  -0.00    -0.40   0.38   0.72     0.06  -0.06  -0.11
  12   1     0.12  -0.03   0.07    -0.00   0.00  -0.00     0.00   0.00  -0.00
  13   1     0.00   0.01   0.02     0.16  -0.04  -0.09     0.50  -0.11  -0.27
  14   1     0.00   0.01   0.04    -0.01  -0.01   0.01    -0.51  -0.42   0.27
  15   1     0.05   0.01   0.00     0.01  -0.01  -0.02    -0.04   0.09   0.19
                     34                     35                     36
                        a                      a                      a 
 Frequencies --  2970.9101              2986.8572              2998.4856
 Red. masses --     1.7792                 1.6474                 1.6377
 Frc consts  --     0.0000                 0.0000                 0.0000
 IR Inten    --    86.3289                60.6502                49.0943
 Raman Activ --     0.0000                 0.0000                 0.0000
 Depolar     --     0.0000                 0.0000                 0.0000
 Atom AN      X      Y      Z        X      Y      Z        X      Y      Z
   1   6    -0.00   0.00  -0.00    -0.00   0.00  -0.00    -0.00   0.00  -0.00
   2   6     0.00   0.00   0.00     0.01   0.00   0.00     0.00  -0.00   0.00
   3   6    -0.00   0.00   0.00     0.00  -0.00  -0.00    -0.00  -0.00  -0.00
   4   6     0.02  -0.00   0.06     0.18  -0.09   0.11    -0.01   0.01   0.01
   5   6    -0.00  -0.00  -0.00     0.00   0.00   0.00     0.00   0.00   0.01
   6   6    -0.17   0.04   0.09     0.06  -0.01  -0.03    -0.02   0.01   0.02
   7   6    -0.12  -0.09   0.08     0.02   0.01  -0.01    -0.04   0.11   0.20
   8   1    -0.00   0.00   0.00     0.00   0.00   0.00     0.00   0.00   0.00
   9   1    -0.00  -0.00   0.00    -0.00  -0.02   0.01    -0.00   0.00  -0.00
  10   1    -0.16   0.10  -0.05    -0.75   0.43  -0.26    -0.00   0.00   0.00
  11   1     0.09  -0.08  -0.15     0.13  -0.11  -0.16     0.02  -0.02  -0.04
  12   1     0.01  -0.00   0.00    -0.00   0.00  -0.00    -0.01   0.01  -0.00
  13   1     0.60  -0.13  -0.33    -0.21   0.05   0.11     0.08  -0.02  -0.04
  14   1     0.43   0.36  -0.23    -0.05  -0.04   0.03    -0.15  -0.11   0.11
  15   1    -0.00  -0.03  -0.03     0.00   0.00   0.00     0.28  -0.30  -0.85
                     37                     38                     39
                        a                      a                      a 
 Frequencies --  3108.4716              3121.9864              3134.4311
 Red. masses --     1.8130                 1.9058                 1.9279
 Frc consts  --     0.0000                 0.0000                 0.0000
 IR Inten    --    22.7864                46.2922                50.0306
 Raman Activ --     0.0000                 0.0000                 0.0000
 Depolar     --     0.0000                 0.0000                 0.0000
 Atom AN      X      Y      Z        X      Y      Z        X      Y      Z
   1   6    -0.05  -0.03  -0.04     0.02   0.01   0.01    -0.19  -0.11  -0.16
   2   6     0.05   0.23  -0.11     0.00   0.01  -0.01    -0.01  -0.08   0.05
   3   6    -0.00  -0.00  -0.00    -0.00  -0.02  -0.00    -0.00   0.00  -0.00
   4   6    -0.00   0.00  -0.01    -0.00   0.00  -0.00     0.00  -0.00   0.00
   5   6     0.00   0.00   0.00    -0.20   0.17  -0.11    -0.02   0.01  -0.01
   6   6    -0.00  -0.00   0.00     0.00   0.00   0.00     0.00   0.00  -0.00
   7   6    -0.00   0.00  -0.00     0.00   0.01   0.00     0.00   0.00   0.00
   8   1     0.21   0.12   0.17    -0.05  -0.03  -0.04     0.64   0.38   0.52
   9   1    -0.20  -0.81   0.37    -0.01  -0.02   0.01     0.06   0.25  -0.12
  10   1     0.02  -0.01   0.01    -0.00   0.00  -0.00    -0.00   0.00  -0.00
  11   1    -0.00   0.00   0.00    -0.00   0.00   0.00    -0.00   0.00   0.00
  12   1    -0.00   0.00  -0.00     0.67  -0.55   0.40     0.05  -0.04   0.03
  13   1     0.00  -0.00  -0.00    -0.00   0.00  -0.00     0.00  -0.00  -0.00
  14   1    -0.00  -0.00  -0.00    -0.00  -0.00   0.00    -0.00  -0.00   0.00
  15   1     0.00  -0.00  -0.00     0.00  -0.00  -0.01    -0.00   0.00   0.00
