      -----------------------------------------------------------      
     |                   =====================                   |     
     |                           x T B                           |     
     |                   =====================                   |     
     |                         S. Grimme                         |     
     |          Mulliken Center for Theoretical Chemistry        |     
     |                    University of Bonn                     |     
      -----------------------------------------------------------      

   * xtb version 6.7.1 (unknown) compiled by 'runner@Mac-1732184002186.local' on 2024-11-21

   xtb is free software: you can redistribute it and/or modify it under
   the terms of the GNU Lesser General Public License as published by
   the Free Software Foundation, either version 3 of the License, or
   (at your option) any later version.
   
   xtb is distributed in the hope that it will be useful,
   but WITHOUT ANY WARRANTY; without even the implied warranty of
   MERCHANTABILITY or FITNESS FOR A PARTICULAR PURPOSE.  See the
   GNU Lesser General Public License for more details.
   
   Cite this work as:
   * C. Bannwarth, E. Caldeweyher, S. Ehlert, A. Hansen, P. Pracht,
     J. Seibert, S. Spicher, S. Grimme, WIREs Comput. Mol. Sci., 2020, 11,
     e01493. DOI: 10.1002/wcms.1493
   
   for GFN2-xTB:
   * C. Bannwarth, S. Ehlert and S. Grimme., J. Chem. Theory Comput., 2019,
     15, 1652-1671. DOI: 10.1021/acs.jctc.8b01176
   for GFN1-xTB:
   * S. Grimme, C. Bannwarth, P. Shushkov, J. Chem. Theory Comput., 2017,
     13, 1989-2009. DOI: 10.1021/acs.jctc.7b00118
   for GFN0-xTB:
   * P. Pracht, E. Caldeweyher, S. Ehlert, S. Grimme, ChemRxiv, 2019, preprint.
     DOI: 10.26434/chemrxiv.8326202.v1
   for GFN-FF:
   * S. Spicher and S. Grimme, Angew. Chem. Int. Ed., 2020, 59, 15665-15673.
     DOI: 10.1002/anie.202004239
   
   for ALPB and GBSA implicit solvation:
   * S. Ehlert, M. Stahn, S. Spicher, S. Grimme, J. Chem. Theory Comput.,
     2021, 17, 4250-4261. DOI: 10.1021/acs.jctc.1c00471
   
   for ddCOSMO and CPCM-X implicit solvation:
   * M. Stahn, S. Ehlert, S. Grimme, J. Phys. Chem. A,
     2023, XX, XXXX-XXXX. DOI: 10.1021/acs.jpca.3c04382
   
   for DFT-D4:
   * E. Caldeweyher, C. Bannwarth and S. Grimme, J. Chem. Phys., 2017,
     147, 034112. DOI: 10.1063/1.4993215
   * E. Caldeweyher, S. Ehlert, A. Hansen, H. Neugebauer, S. Spicher,
     C. Bannwarth and S. Grimme, J. Chem. Phys., 2019, 150, 154122.
     DOI: 10.1063/1.5090222
   * E. Caldeweyher, J.-M. Mewes, S. Ehlert and S. Grimme, Phys. Chem. Chem. Phys.
     2020, 22, 8499-8512. DOI: 10.1039/D0CP00502A
   
   for sTDA-xTB:
   * S. Grimme and C. Bannwarth, J. Chem. Phys., 2016, 145, 054103.
     DOI: 10.1063/1.4959605
   
   in the mass-spec context:
   * V. Asgeirsson, C. Bauer and S. Grimme, Chem. Sci., 2017, 8, 4879.
     DOI: 10.1039/c7sc00601b
   * J. Koopman and S. Grimme, ACS Omega 2019, 4, 12, 15120-15133.
     DOI: 10.1021/acsomega.9b02011
   
   for metadynamics refer to:
   * S. Grimme, J. Chem. Theory Comput., 2019, 155, 2847-2862
     DOI: 10.1021/acs.jctc.9b00143
   
   for SPH calculations refer to:
   * S. Spicher and S. Grimme, J. Chem. Theory Comput., 2021, 17, 1701-1714
     DOI: 10.1021/acs.jctc.0c01306
   
   for ONIOM refer to:
   * C. Plett, A. Katbashev, S. Ehlert, S. Grimme, M. Bursch,
     Phys. Chem. Chem. Phys., 2023, 25, 17860-17868. DOI: 10.1039/D3CP02178E
   
   for DIPRO refer to:
   * J. Kohn, N. Gildemeister, S. Grimme, D. Fazzi, A. Hansen,
     J. Chem. Phys., 2023, just accepted.
   
   for PTB refer to:
   * S. Grimme, M. Mueller, A. Hansen, J. Chem. Phys., 2023, 158, 124111.
     DOI: 10.1063/5.0137838
   
   with help from (in alphabetical order)
   P. Atkinson, C. Bannwarth, F. Bohle, G. Brandenburg, E. Caldeweyher
   M. Checinski, S. Dohm, S. Ehlert, S. Ehrlich, I. Gerasimov, C. Hölzer
   A. Katbashev, J. Kohn, J. Koopman, C. Lavigne, S. Lehtola, F. März, M. Müller,
   F. Musil, H. Neugebauer, J. Pisarek, C. Plett, P. Pracht, F. Pultar,
   J. Seibert, P. Shushkov, S. Spicher, M. Stahn, M. Steiner, T. Strunk,
   J. Stückrath, T. Rose, and J. Unsleber
   
 * started run on 2026/09/04 at 18:38:20.320     
   ID    Z sym.   atoms
    1    6 C      1-7
    2    1 H      8-15

           -------------------------------------------------
          |                Calculation Setup                |
           -------------------------------------------------

          program call               : /opt/homebrew/bin/xtb temp_frame_opt.xyz --chrg 0 --uhf 0 --gfn 2 --acc 1.0 --etemp 300.0 --parallel 1 --ohess normal --input control.txt
          coordinate file            : temp_frame_opt.xyz
          omp threads                :                     1


           -------------------------------------------------
          |                 G F N 2 - x T B                 |
           -------------------------------------------------

        Reference                      10.1021/acs.jctc.8b01176
      * Hamiltonian:
        H0-scaling (s, p, d)           1.850000    2.230000    2.230000
        zeta-weighting                 0.500000
      * Dispersion:
        s8                             2.700000
        a1                             0.520000
        a2                             5.000000
        s9                             5.000000
      * Repulsion:
        kExp                           1.500000    1.000000
        rExp                           1.000000
      * Coulomb:
        alpha                          2.000000
        third order                    shell-resolved
        anisotropic                    true
        a3                             3.000000
        a5                             4.000000
        cn-shift                       1.200000
        cn-exp                         4.000000
        max-rad                        5.000000

q/qsh data taken from xtbrestart
CAMM data taken from xtbrestart

          ...................................................
          :                      SETUP                      :
          :.................................................:
          :  # basis functions                  36          :
          :  # atomic orbitals                  36          :
          :  # shells                           22          :
          :  # electrons                        36          :
          :  max. iterations                   250          :
          :  Hamiltonian                  GFN2-xTB          :
          :  restarted?                       true          :
          :  GBSA solvation                  false          :
          :  PC potential                    false          :
          :  electronic temp.          300.0000000     K    :
          :  accuracy                    1.0000000          :
          :  -> integral cutoff          0.2500000E+02      :
          :  -> integral neglect         0.1000000E-07      :
          :  -> SCF convergence          0.1000000E-05 Eh   :
          :  -> wf. convergence          0.1000000E-03 e    :
          :  Broyden damping             0.4000000          :
          :  net charge                          0          :
          :  unpaired electrons                  0          :
          ...................................................

 iter      E             dE          RMSdq      gap      omega  full diag
   1    -19.0565312 -0.190565E+02  0.325E+00    2.44       0.0  T
   2    -19.0535768  0.295442E-02  0.204E+00    2.73       1.0  T
   3    -18.9786496  0.749272E-01  0.224E+00    2.33       1.0  T
   4    -19.0606157 -0.819661E-01  0.145E-01    2.57       1.0  T
   5    -19.0607938 -0.178046E-03  0.596E-02    2.61       1.0  T
   6    -19.0607986 -0.487502E-05  0.434E-02    2.60       1.0  T
   7    -19.0608118 -0.131939E-04  0.170E-02    2.60       1.5  T
   8    -19.0608142 -0.237535E-05  0.656E-03    2.60       3.9  T
   9    -19.0608145 -0.280687E-06  0.193E-03    2.60      13.4  T
  10    -19.0608145 -0.711537E-08  0.505E-04    2.60      51.2  T
  11    -19.0608145 -0.160289E-08  0.219E-04    2.60     117.8  T

   *** convergence criteria satisfied after 11 iterations ***

         #    Occupation            Energy/Eh            Energy/eV
      -------------------------------------------------------------
         1        2.0000           -0.6454442             -17.5634
       ...           ...                  ...                  ...
        12        2.0000           -0.4616263             -12.5615
        13        2.0000           -0.4586255             -12.4798
        14        2.0000           -0.4286707             -11.6647
        15        2.0000           -0.4045245             -11.0077
        16        2.0000           -0.3907254             -10.6322
        17        2.0000           -0.3758936             -10.2286
        18        2.0000           -0.3530450              -9.6068 (HOMO)
        19                         -0.2574440              -7.0054 (LUMO)
        20                         -0.1872345              -5.0949
        21                         -0.1369182              -3.7257
        22                         -0.1049964              -2.8571
        23                         -0.0430150              -1.1705
       ...                                ...                  ...
        36                          0.8364636              22.7613
      -------------------------------------------------------------
                  HL-Gap            0.0956010 Eh            2.6014 eV
             Fermi-level           -0.3052445 Eh           -8.3061 eV

 SCC (total)                   0 d,  0 h,  0 min,  0.004 sec
 SCC setup                      ...        0 min,  0.000 sec (  0.689%)
 Dispersion                     ...        0 min,  0.000 sec (  0.644%)
 classical contributions        ...        0 min,  0.000 sec (  0.239%)
 integral evaluation            ...        0 min,  0.000 sec (  8.273%)
 iterations                     ...        0 min,  0.003 sec ( 65.759%)
 molecular gradient             ...        0 min,  0.001 sec ( 23.541%)
 printout                       ...        0 min,  0.000 sec (  0.832%)

         :::::::::::::::::::::::::::::::::::::::::::::::::::::
         ::                     SUMMARY                     ::
         :::::::::::::::::::::::::::::::::::::::::::::::::::::
         :: total energy             -18.754827583672 Eh    ::
         :: gradient norm              0.343211736175 Eh/a0 ::
         :: HOMO-LUMO gap              2.601435687200 eV    ::
         ::.................................................::
         :: SCC energy               -19.060794574584 Eh    ::
         :: -> isotropic ES            0.001596545130 Eh    ::
         :: -> anisotropic ES          0.004104097422 Eh    ::
         :: -> anisotropic XC          0.018377139404 Eh    ::
         :: -> dispersion             -0.010264836003 Eh    ::
         :: repulsion energy           0.305966990912 Eh    ::
         :: add. restraining           0.000000000000 Eh    ::
         :: total charge              -0.000000000000 e     ::
         :::::::::::::::::::::::::::::::::::::::::::::::::::::

      ----------------------------------------------------------- 
     |                       L-ANC optimizer                     |
      ----------------------------------------------------------- 
          low memory version by Sebastian Ehlert

          ...................................................
          :                      SETUP                      :
          :.................................................:
          :   energy convergence        0.5000000E-05 Eh    :
          :   grad. convergence         0.1000000E-02 Eh/a0 :
          :   optimization log               true           :
          :   writing optlog all                1     steps :
          :   Hessian reset                    25     steps :
          :   maximium step len.        1.0000000     a0    :
          :   LBFGS images                     25           :
          ...................................................
 * calculating model hessian...
Using Lindh-Hessian (1995)
 Shifting diagonal of input Hessian by    1.0000000000000000E-002
 Lowest  eigenvalues of input Hessian
    0.000000    0.000000    0.000000    0.000000    0.000000    0.000000
    0.013023    0.013732    0.019550    0.021573    0.028310    0.030403
    0.036510    0.040788    0.043859    0.049239    0.061848    0.067100
 Highest eigenvalues
    1.192333    1.250631    1.448817    1.536367    1.920836    2.000758


........................................................................
.............................. CYCLE    1 ..............................
........................................................................

 iter      E             dE          RMSdq      gap      omega  full diag
   1    -19.1616362 -0.191616E+02  0.764E-01    3.13       0.0  T
   2    -19.1617834 -0.147241E-03  0.514E-01    3.03       1.0  T
   3    -19.1601254  0.165799E-02  0.417E-01    3.13       1.0  T
   4    -19.1623873 -0.226189E-02  0.886E-02    3.07       1.0  T
   5    -19.1624610 -0.737081E-04  0.206E-02    3.07       1.3  T
   6    -19.1624614 -0.368151E-06  0.135E-02    3.07       1.9  T
   7    -19.1624629 -0.156079E-05  0.505E-03    3.07       5.1  T
   8    -19.1624632 -0.219319E-06  0.135E-03    3.07      19.2  T
   9    -19.1624632 -0.198163E-08  0.261E-04    3.07      99.0  T
  10    -19.1624632 -0.537536E-09  0.891E-05    3.07     289.7  T
     SCC iter.                  ...        0 min,  0.002 sec
     gradient                   ...        0 min,  0.001 sec
 * total energy  :   -18.8774164 Eh     change       -0.1225888E+00 Eh
   gradient norm :     0.1890692 Eh/a0  converged?    E=F G=F D=F
   step length   :     0.5682740 a0

........................................................................
.............................. CYCLE    2 ..............................
........................................................................

 iter      E             dE          RMSdq      gap      omega  full diag
   1    -19.2511886 -0.192512E+02  0.134E+00    3.24       0.0  T
   2    -19.2517241 -0.535514E-03  0.813E-01    3.22       1.0  T
   3    -19.2496247  0.209937E-02  0.400E-01    3.24       1.0  T
   4    -19.2519640 -0.233933E-02  0.935E-02    3.23       1.0  T
   5    -19.2520614 -0.973507E-04  0.261E-02    3.22       1.0  T
   6    -19.2520621 -0.718827E-06  0.179E-02    3.23       1.4  T
   7    -19.2520653 -0.322740E-05  0.491E-03    3.23       5.3  T
   8    -19.2520655 -0.123707E-06  0.143E-03    3.23      18.0  T
   9    -19.2520655 -0.651009E-08  0.548E-04    3.23      47.1  T
  10    -19.2520655 -0.103584E-08  0.728E-05    3.23     354.8  T
     SCC iter.                  ...        0 min,  0.002 sec
     gradient                   ...        0 min,  0.001 sec
 * total energy  :   -18.9427464 Eh     change       -0.6533001E-01 Eh
   gradient norm :     0.0776818 Eh/a0  converged?    E=F G=F D=F
   step length   :     1.7878627 a0

........................................................................
.............................. CYCLE    3 ..............................
........................................................................

 iter      E             dE          RMSdq      gap      omega  full diag
   1    -19.2362319 -0.192362E+02  0.126E+00    3.07       0.0  T
   2    -19.2363955 -0.163620E-03  0.739E-01    3.09       1.0  T
   3    -19.2350337  0.136176E-02  0.326E-01    3.13       1.0  T
   4    -19.2364735 -0.143977E-02  0.473E-02    3.10       1.0  T
   5    -19.2365070 -0.334640E-04  0.203E-02    3.11       1.3  T
   6    -19.2365078 -0.882872E-06  0.943E-03    3.11       2.7  T
   7    -19.2365088 -0.969823E-06  0.408E-03    3.11       6.3  T
   8    -19.2365089 -0.118455E-06  0.973E-04    3.11      26.5  T
   9    -19.2365089 -0.274630E-08  0.338E-04    3.11      76.5  T
     SCC iter.                  ...        0 min,  0.002 sec
     gradient                   ...        0 min,  0.001 sec
 * total energy  :   -18.9471198 Eh     change       -0.4373398E-02 Eh
   gradient norm :     0.1214013 Eh/a0  converged?    E=F G=F D=F
   step length   :     1.7737031 a0

........................................................................
.............................. CYCLE    4 ..............................
........................................................................

 iter      E             dE          RMSdq      gap      omega  full diag
   1    -19.2715275 -0.192715E+02  0.747E-01    3.38       0.0  T
   2    -19.2716059 -0.784089E-04  0.478E-01    3.39       1.0  T
   3    -19.2706334  0.972452E-03  0.372E-01    3.35       1.0  T
   4    -19.2720897 -0.145628E-02  0.482E-02    3.38       1.0  T
   5    -19.2721171 -0.273931E-04  0.202E-02    3.37       1.3  T
   6    -19.2721217 -0.456600E-05  0.818E-03    3.37       3.2  T
   7    -19.2721219 -0.194375E-06  0.143E-03    3.37      18.1  T
   8    -19.2721219 -0.290084E-08  0.552E-04    3.37      46.8  T
   9    -19.2721219 -0.904890E-09  0.226E-04    3.37     114.4  T
     SCC iter.                  ...        0 min,  0.002 sec
     gradient                   ...        0 min,  0.001 sec
 * total energy  :   -18.9626760 Eh     change       -0.1555620E-01 Eh
   gradient norm :     0.0558419 Eh/a0  converged?    E=F G=F D=F
   step length   :     0.6570225 a0

........................................................................
.............................. CYCLE    5 ..............................
........................................................................

 iter      E             dE          RMSdq      gap      omega  full diag
   1    -19.2927662 -0.192928E+02  0.577E-01    3.40       0.0  T
   2    -19.2928053 -0.391267E-04  0.355E-01    3.39       1.0  T
   3    -19.2923407  0.464588E-03  0.187E-01    3.41       1.0  T
   4    -19.2928670 -0.526279E-03  0.169E-02    3.40       1.5  T
   5    -19.2928683 -0.134084E-05  0.110E-02    3.40       2.3  T
   6    -19.2928692 -0.843420E-06  0.490E-03    3.40       5.3  T
   7    -19.2928693 -0.156520E-06  0.123E-03    3.40      20.9  T
   8    -19.2928693 -0.668842E-08  0.359E-04    3.40      72.0  T
   9    -19.2928693 -0.375003E-09  0.154E-04    3.40     168.1  T
     SCC iter.                  ...        0 min,  0.002 sec
     gradient                   ...        0 min,  0.001 sec
 * total energy  :   -18.9643204 Eh     change       -0.1644386E-02 Eh
   gradient norm :     0.0579540 Eh/a0  converged?    E=F G=F D=F
   step length   :     0.4908494 a0

........................................................................
.............................. CYCLE    6 ..............................
........................................................................

 iter      E             dE          RMSdq      gap      omega  full diag
   1    -19.2844316 -0.192844E+02  0.440E-01    3.33       0.0  T
   2    -19.2844553 -0.237274E-04  0.259E-01    3.34       1.0  T
   3    -19.2842703  0.185013E-03  0.121E-01    3.33       1.0  T
   4    -19.2844708 -0.200547E-03  0.142E-02    3.33       1.8  T
   5    -19.2844729 -0.206015E-05  0.678E-03    3.33       3.8  T
   6    -19.2844730 -0.148805E-06  0.415E-03    3.33       6.2  T
   7    -19.2844732 -0.147353E-06  0.109E-03    3.33      23.8  T
   8    -19.2844732 -0.429765E-08  0.279E-04    3.33      92.6  T
   9    -19.2844732 -0.257831E-09  0.104E-04    3.33     249.0  T
     SCC iter.                  ...        0 min,  0.002 sec
     gradient                   ...        0 min,  0.001 sec
 * total energy  :   -18.9684846 Eh     change       -0.4164143E-02 Eh
   gradient norm :     0.0384443 Eh/a0  converged?    E=F G=F D=F
   step length   :     0.3743486 a0

........................................................................
.............................. CYCLE    7 ..............................
........................................................................

 iter      E             dE          RMSdq      gap      omega  full diag
   1    -19.2886934 -0.192887E+02  0.509E-01    3.26       0.0  T
   2    -19.2887245 -0.311516E-04  0.307E-01    3.25       1.0  T
   3    -19.2883027  0.421855E-03  0.186E-01    3.26       1.0  T
   4    -19.2887866 -0.483859E-03  0.138E-02    3.25       1.9  T
   5    -19.2887879 -0.138331E-05  0.106E-02    3.25       2.4  T
   6    -19.2887886 -0.681063E-06  0.404E-03    3.25       6.4  T
   7    -19.2887887 -0.844988E-07  0.120E-03    3.25      21.6  T
   8    -19.2887887 -0.512929E-08  0.465E-04    3.25      55.6  T
   9    -19.2887887 -0.115470E-08  0.131E-04    3.25     196.5  T
     SCC iter.                  ...        0 min,  0.002 sec
     gradient                   ...        0 min,  0.001 sec
 * total energy  :   -18.9665167 Eh     change        0.1967888E-02 Eh
   gradient norm :     0.0605705 Eh/a0  converged?    E=F G=F D=F
   step length   :     0.4595955 a0

........................................................................
.............................. CYCLE    8 ..............................
........................................................................

 iter      E             dE          RMSdq      gap      omega  full diag
   1    -19.2949426 -0.192949E+02  0.388E-01    3.43       0.0  T
   2    -19.2949557 -0.131458E-04  0.228E-01    3.43       1.0  T
   3    -19.2948812  0.744770E-04  0.771E-02    3.42       1.0  T
   4    -19.2949631 -0.818521E-04  0.102E-02    3.43       2.5  T
   5    -19.2949640 -0.950770E-06  0.671E-03    3.43       3.8  T
   6    -19.2949643 -0.217668E-06  0.321E-03    3.43       8.0  T
   7    -19.2949643 -0.807816E-07  0.104E-03    3.43      24.7  T
   8    -19.2949643 -0.510483E-08  0.251E-04    3.43     102.7  T
   9    -19.2949643 -0.236955E-09  0.859E-05    3.43     300.5  T
     SCC iter.                  ...        0 min,  0.002 sec
     gradient                   ...        0 min,  0.001 sec
 * total energy  :   -18.9710305 Eh     change       -0.4513794E-02 Eh
   gradient norm :     0.0247181 Eh/a0  converged?    E=F G=F D=F
   step length   :     0.3013934 a0

........................................................................
.............................. CYCLE    9 ..............................
........................................................................

 iter      E             dE          RMSdq      gap      omega  full diag
   1    -19.2895568 -0.192896E+02  0.283E-01    3.28       0.0  T
   2    -19.2895785 -0.216959E-04  0.187E-01    3.29       1.0  T
   3    -19.2894446  0.133860E-03  0.123E-01    3.28       1.0  T
   4    -19.2896326 -0.187971E-03  0.176E-02    3.29       1.5  T
   5    -19.2896362 -0.357807E-05  0.871E-03    3.28       3.0  T
   6    -19.2896369 -0.708462E-06  0.304E-03    3.28       8.5  T
   7    -19.2896369 -0.249011E-07  0.138E-03    3.28      18.7  T
   8    -19.2896369 -0.917301E-08  0.371E-04    3.28      69.6  T
   9    -19.2896369 -0.496971E-09  0.124E-04    3.28     208.0  T
     SCC iter.                  ...        0 min,  0.002 sec
     gradient                   ...        0 min,  0.001 sec
 * total energy  :   -18.9711746 Eh     change       -0.1441027E-03 Eh
   gradient norm :     0.0352319 Eh/a0  converged?    E=F G=F D=F
   step length   :     0.2871093 a0

........................................................................
.............................. CYCLE   10 ..............................
........................................................................

 iter      E             dE          RMSdq      gap      omega  full diag
   1    -19.2961372 -0.192961E+02  0.167E-01    3.38       0.0  T
   2    -19.2961464 -0.928795E-05  0.111E-01    3.37       1.0  T
   3    -19.2961039  0.425178E-04  0.770E-02    3.38       1.0  T
   4    -19.2961708 -0.669201E-04  0.120E-02    3.37       2.2  T
   5    -19.2961725 -0.163519E-05  0.571E-03    3.37       4.5  T
   6    -19.2961728 -0.358198E-06  0.162E-03    3.37      16.0  T
   7    -19.2961728 -0.247449E-08  0.604E-04    3.37      42.7  T
   8    -19.2961728 -0.153205E-08  0.141E-04    3.37     183.1  T
     SCC iter.                  ...        0 min,  0.002 sec
     gradient                   ...        0 min,  0.001 sec
 * total energy  :   -18.9725293 Eh     change       -0.1354712E-02 Eh
   gradient norm :     0.0114905 Eh/a0  converged?    E=F G=F D=F
   step length   :     0.1741324 a0

........................................................................
.............................. CYCLE   11 ..............................
........................................................................

 iter      E             dE          RMSdq      gap      omega  full diag
   1    -19.2979259 -0.192979E+02  0.156E-01    3.37       0.0  T
   2    -19.2979278 -0.189435E-05  0.931E-02    3.38       1.0  T
   3    -19.2979115  0.162988E-04  0.331E-02    3.37       1.0  T
   4    -19.2979291 -0.175259E-04  0.547E-03    3.38       4.7  T
   5    -19.2979293 -0.266497E-06  0.190E-03    3.38      13.6  T
   6    -19.2979293 -0.156465E-07  0.124E-03    3.38      20.8  T
   7    -19.2979294 -0.950048E-08  0.209E-04    3.38     123.6  T
   8    -19.2979294 -0.128527E-09  0.611E-05    3.38     422.3  T
     SCC iter.                  ...        0 min,  0.002 sec
     gradient                   ...        0 min,  0.001 sec
 * total energy  :   -18.9729203 Eh     change       -0.3910470E-03 Eh
   gradient norm :     0.0101619 Eh/a0  converged?    E=F G=F D=F
   step length   :     0.1608499 a0

........................................................................
.............................. CYCLE   12 ..............................
........................................................................

 iter      E             dE          RMSdq      gap      omega  full diag
   1    -19.2982266 -0.192982E+02  0.113E-01    3.39       0.0  T
   2    -19.2982287 -0.208105E-05  0.680E-02    3.39       1.0  T
   3    -19.2982138  0.148495E-04  0.327E-02    3.39       1.0  T
   4    -19.2982298 -0.160190E-04  0.530E-03    3.39       4.9  T
   5    -19.2982301 -0.296691E-06  0.142E-03    3.39      18.2  T
   6    -19.2982301 -0.218873E-08  0.487E-04    3.39      53.0  T
   7    -19.2982301 -0.869605E-09  0.234E-04    3.39     110.3  T
     SCC iter.                  ...        0 min,  0.001 sec
     gradient                   ...        0 min,  0.001 sec
 * total energy  :   -18.9732739 Eh     change       -0.3536050E-03 Eh
   gradient norm :     0.0102370 Eh/a0  converged?    E=F G=F D=F
   step length   :     0.1960847 a0

........................................................................
.............................. CYCLE   13 ..............................
........................................................................

 iter      E             dE          RMSdq      gap      omega  full diag
   1    -19.3034646 -0.193035E+02  0.103E-01    3.41       0.0  T
   2    -19.3034703 -0.569861E-05  0.618E-02    3.40       1.0  T
   3    -19.3034590  0.112739E-04  0.333E-02    3.41       1.0  T
   4    -19.3034718 -0.128401E-04  0.107E-02    3.40       2.4  T
   5    -19.3034729 -0.109777E-05  0.280E-03    3.40       9.2  T
   6    -19.3034729 -0.155665E-07  0.180E-03    3.40      14.3  T
   7    -19.3034730 -0.305199E-07  0.531E-04    3.40      48.6  T
   8    -19.3034730 -0.158911E-08  0.140E-04    3.40     184.7  T
     SCC iter.                  ...        0 min,  0.002 sec
     gradient                   ...        0 min,  0.001 sec
 * total energy  :   -18.9733687 Eh     change       -0.9480573E-04 Eh
   gradient norm :     0.0110780 Eh/a0  converged?    E=F G=F D=F
   step length   :     0.1391395 a0

........................................................................
.............................. CYCLE   14 ..............................
........................................................................

 iter      E             dE          RMSdq      gap      omega  full diag
   1    -19.2996921 -0.192997E+02  0.725E-02    3.39       0.0  T
   2    -19.2996942 -0.208018E-05  0.425E-02    3.39       1.0  T
   3    -19.2996894  0.481890E-05  0.210E-02    3.39       1.2  T
   4    -19.2996944 -0.506288E-05  0.655E-03    3.39       3.9  T
   5    -19.2996949 -0.497655E-06  0.132E-03    3.39      19.6  T
   6    -19.2996949 -0.624450E-09  0.474E-04    3.39      54.4  T
   7    -19.2996949 -0.739181E-09  0.297E-04    3.39      86.8  T
     SCC iter.                  ...        0 min,  0.001 sec
     gradient                   ...        0 min,  0.001 sec
 * total energy  :   -18.9735339 Eh     change       -0.1651355E-03 Eh
   gradient norm :     0.0070749 Eh/a0  converged?    E=F G=F D=F
   step length   :     0.0883024 a0

........................................................................
.............................. CYCLE   15 ..............................
........................................................................

 iter      E             dE          RMSdq      gap      omega  full diag
   1    -19.2996182 -0.192996E+02  0.334E-02    3.40       0.0  T
   2    -19.2996183 -0.122049E-06  0.197E-02    3.40       1.3  T
   3    -19.2996175  0.799762E-06  0.776E-03    3.39       3.3  T
   4    -19.2996184 -0.864068E-06  0.145E-03    3.40      17.8  T
   5    -19.2996184 -0.210936E-07  0.427E-04    3.40      60.4  T
   6    -19.2996184  0.117634E-09  0.288E-04    3.40      89.6  T
     SCC iter.                  ...        0 min,  0.001 sec
     gradient                   ...        0 min,  0.001 sec
 * total energy  :   -18.9736113 Eh     change       -0.7739804E-04 Eh
   gradient norm :     0.0058547 Eh/a0  converged?    E=F G=F D=F
   step length   :     0.0410093 a0

........................................................................
.............................. CYCLE   16 ..............................
........................................................................

 iter      E             dE          RMSdq      gap      omega  full diag
   1    -19.2988361 -0.192988E+02  0.726E-02    3.41       0.0  T
   2    -19.2988366 -0.463826E-06  0.428E-02    3.41       1.0  T
   3    -19.2988363  0.322242E-06  0.569E-03    3.41       4.5  T
   4    -19.2988366 -0.340492E-06  0.274E-03    3.41       9.4  T
   5    -19.2988367 -0.910573E-07  0.730E-04    3.41      35.4  T
   6    -19.2988367 -0.164279E-08  0.281E-04    3.41      91.8  T
     SCC iter.                  ...        0 min,  0.001 sec
     gradient                   ...        0 min,  0.001 sec
 * total energy  :   -18.9737274 Eh     change       -0.1161348E-03 Eh
   gradient norm :     0.0049022 Eh/a0  converged?    E=F G=F D=F
   step length   :     0.1299668 a0

........................................................................
.............................. CYCLE   17 ..............................
........................................................................

 iter      E             dE          RMSdq      gap      omega  full diag
   1    -19.2993162 -0.192993E+02  0.505E-02    3.42       0.0  T
   2    -19.2993163 -0.958703E-07  0.304E-02    3.42       1.0  T
   3    -19.2993134  0.295098E-05  0.146E-02    3.42       1.8  T
   4    -19.2993166 -0.318786E-05  0.111E-03    3.42      23.2  T
   5    -19.2993166 -0.614973E-08  0.502E-04    3.42      51.4  T
   6    -19.2993166  0.117581E-09  0.233E-04    3.42     111.0  T
     SCC iter.                  ...        0 min,  0.001 sec
     gradient                   ...        0 min,  0.001 sec
 * total energy  :   -18.9737746 Eh     change       -0.4718503E-04 Eh
   gradient norm :     0.0048664 Eh/a0  converged?    E=F G=F D=F
   step length   :     0.1055977 a0

........................................................................
.............................. CYCLE   18 ..............................
........................................................................

 iter      E             dE          RMSdq      gap      omega  full diag
   1    -19.3001401 -0.193001E+02  0.270E-02    3.43       0.0  T
   2    -19.3001402 -0.115081E-06  0.161E-02    3.43       1.6  T
   3    -19.3001393  0.939237E-06  0.878E-03    3.43       2.9  T
   4    -19.3001403 -0.105761E-05  0.117E-03    3.43      22.1  T
   5    -19.3001403 -0.121814E-07  0.519E-04    3.43      49.8  T
   6    -19.3001403 -0.704620E-09  0.292E-04    3.43      88.5  T
     SCC iter.                  ...        0 min,  0.001 sec
     gradient                   ...        0 min,  0.001 sec
 * total energy  :   -18.9738053 Eh     change       -0.3074964E-04 Eh
   gradient norm :     0.0031878 Eh/a0  converged?    E=F G=F D=F
   step length   :     0.0455453 a0

........................................................................
.............................. CYCLE   19 ..............................
........................................................................

 iter      E             dE          RMSdq      gap      omega  full diag
   1    -19.3003579 -0.193004E+02  0.255E-02    3.43       0.0  T
   2    -19.3003579 -0.289915E-07  0.151E-02    3.43       1.7  T
   3    -19.3003571  0.742786E-06  0.762E-03    3.43       3.4  T
   4    -19.3003579 -0.808366E-06  0.667E-04    3.43      38.7  T
   5    -19.3003580 -0.381093E-08  0.250E-04    3.43     103.4  T
     SCC iter.                  ...        0 min,  0.001 sec
     gradient                   ...        0 min,  0.001 sec
 * total energy  :   -18.9738211 Eh     change       -0.1575969E-04 Eh
   gradient norm :     0.0021087 Eh/a0  converged?    E=F G=F D=F
   step length   :     0.0335548 a0

........................................................................
.............................. CYCLE   20 ..............................
........................................................................

 iter      E             dE          RMSdq      gap      omega  full diag
   1    -19.3001404 -0.193001E+02  0.185E-02    3.43       0.0  T
   2    -19.3001404 -0.330819E-07  0.109E-02    3.43       2.4  T
   3    -19.3001403  0.686243E-07  0.235E-03    3.43      11.0  T
   4    -19.3001404 -0.718407E-07  0.778E-04    3.43      33.2  T
   5    -19.3001404 -0.721641E-08  0.172E-04    3.43     150.0  T
     SCC iter.                  ...        0 min,  0.001 sec
     gradient                   ...        0 min,  0.001 sec
 * total energy  :   -18.9738277 Eh     change       -0.6573605E-05 Eh
   gradient norm :     0.0013559 Eh/a0  converged?    E=F G=F D=F
   step length   :     0.0264139 a0

........................................................................
.............................. CYCLE   21 ..............................
........................................................................

 iter      E             dE          RMSdq      gap      omega  full diag
   1    -19.3002324 -0.193002E+02  0.138E-02    3.43       0.0  T
   2    -19.3002324 -0.245974E-07  0.809E-03    3.43       3.2  T
   3    -19.3002321  0.328812E-06  0.575E-03    3.44       4.5  T
   4    -19.3002324 -0.376429E-06  0.661E-04    3.43      39.0  T
   5    -19.3002325 -0.635334E-08  0.165E-04    3.43     156.4  T
     SCC iter.                  ...        0 min,  0.001 sec
     gradient                   ...        0 min,  0.001 sec
 * total energy  :   -18.9738294 Eh     change       -0.1701291E-05 Eh
   gradient norm :     0.0009617 Eh/a0  converged?    E=T G=T D=F
   step length   :     0.0133870 a0

   *** GEOMETRY OPTIMIZATION CONVERGED AFTER 21 CYCLES ***

------------------------------------------------------------------------
 total energy gain   :        -0.2190018 Eh     -137.4257 kcal/mol
 total RMSD          :         0.8169391 a0        0.4323 Å
 total power (kW/mol):       -27.3804351 (step)-8878.4799 (real)
------------------------------------------------------------------------

 L-ANCopt (total)              0 d,  0 h,  0 min,  0.065 sec
 setup                          ...        0 min,  0.000 sec (  0.141%)
 model hessian                  ...        0 min,  0.001 sec (  1.560%)
 ANC generation                 ...        0 min,  0.000 sec (  0.204%)
 coordinate transformation      ...        0 min,  0.000 sec (  0.056%)
 Rational function              ...        0 min,  0.000 sec (  0.032%)
 singlepoint calculation        ...        0 min,  0.063 sec ( 96.976%)
 optimization log               ...        0 min,  0.000 sec (  0.710%)
 hessian update                 ...        0 min,  0.000 sec (  0.053%)

================
 final structure:
================
15
 xtb: 6.7.1 (unknown)
C           -0.85225974769961       -1.21259570476904       -0.63418458736715
C           -0.30272258631966       -1.72708521105259        0.47248392497971
C           -0.29806781675292        0.11168795536084       -0.79127439617414
C            0.67677386452518       -0.78902967902944        1.15487815946992
C           -0.55108995260982        1.42871647300750       -0.82138387710193
C            0.94100523465104        0.24563235603469        0.05702081786759
C            0.61211526005640        1.76846799446645        0.08083021483051
H           -1.61180654243225       -1.66403626072227       -1.24561785336224
H           -0.54547300587460       -2.68114230761238        0.90908524824097
H            1.57349925604340       -1.30666540814512        1.49720020466969
H            0.19070732658889       -0.34149536646166        2.02627419183151
H           -1.31071411674809        2.04260616810435       -1.26851712863456
H            1.88004887644907        0.03664412104255       -0.45652014139712
H            1.38943664437608        2.42135934080830       -0.31878148315482
H            0.30030222076760        2.13646043446412        1.05664326944366

 Bond Distances (Angstroems)
 ---------------------------
C1-C2=1.3384         C1-C3=1.4441         C1-H8=1.0745         C2-C1=1.3384         C2-C4=1.5182         C2-H9=1.0769         
C3-C1=1.4441         C3-C5=1.3415         C3-C6=1.5076         C4-C2=1.5182         C4-C6=1.5315         C4-H10=1.0905        
C4-H11=1.0936        C5-C3=1.3415         C5-C7=1.5108         C5-H12=1.0742        C6-C3=1.5076         C6-C4=1.5315         
C6-C7=1.5581         C6-H13=1.0905        C7-C5=1.5108         C7-C6=1.5581         C7-H14=1.0910        C7-H15=1.0885        
H8-C1=1.0745         H9-C2=1.0769         H10-C4=1.0905        H11-C4=1.0936        H12-C5=1.0742        H13-C6=1.0905        
H14-C7=1.0910        H15-C7=1.0885        
 C  H  Rav=1.0850 sigma=0.0077  Rmin=1.0742  Rmax=1.0936     8
 C  C  Rav=1.4688 sigma=0.0802  Rmin=1.3384  Rmax=1.5581     8

 selected bond angles (degree)
 --------------------
C3-C1-C2=106.55                H8-C1-C2=126.82                H8-C1-C3=126.49                C4-C2-C1=113.52                
H9-C2-C1=125.68                H9-C2-C4=120.70                C5-C3-C1=146.14                C6-C3-C1=109.61                
C6-C3-C5= 94.61                C6-C4-C2=101.92                H10-C4-C2=112.23               H10-C4-C6=113.82               
H11-C4-C2=108.92               H11-C4-C6=111.80               H11-C4-H10=108.04              C7-C5-C3= 93.56                
H12-C5-C3=134.74               H12-C5-C7=131.65               C4-C6-C3=101.63                C7-C6-C3= 85.52                
C7-C6-C4=127.80                H13-C6-C3=115.20               H13-C6-C4=110.90               H13-C6-C7=112.10               
C6-C7-C5= 86.19                H14-C7-C5=117.67               H14-C7-C6=115.40               H15-C7-C5=113.01               
H15-C7-C6=113.86               H15-C7-H14=109.28              

 selected dihedral angles (degree)
 ---------------------------------
C4-C2-C1-C3=359.80            C4-C2-C1-H8=184.00            H9-C2-C1-C3=176.08            H9-C2-C1-H8=  0.27            
C5-C3-C1-C2=243.68            C5-C3-C1-H8= 59.50            C6-C3-C1-C2= 16.85            C6-C3-C1-H8=192.68            
C6-C4-C2-C1=344.36            C6-C4-C2-H9=167.88            H10-C4-C2-C1=222.21           H10-C4-C2-H9= 45.73           
H11-C4-C2-C1=102.63           H11-C4-C2-H9=286.15           C7-C5-C3-C1=133.83            C7-C5-C3-C6=357.39            
H12-C5-C3-C1=316.36           H12-C5-C3-C6=179.93           C4-C6-C3-C1=334.29            C4-C6-C3-C5=130.23            
C7-C6-C3-C1=206.59            C7-C6-C3-C5=  2.53            H13-C6-C3-C1= 94.24           H13-C6-C3-C5=250.18           
C3-C6-C4-C2= 23.38            C3-C6-C4-H10=144.43           C3-C6-C4-H11=267.19           C7-C6-C4-C2=116.75            
C7-C6-C4-H10=237.80           C7-C6-C4-H11=  0.56           H13-C6-C4-C2=260.44           H13-C6-C4-H10= 21.49          
H13-C6-C4-H11=144.25          C6-C7-C5-C3=  2.52            C6-C7-C5-H12=180.11           H14-C7-C5-C3=119.30           
H14-C7-C5-H12=296.89          H15-C7-C5-C3=248.18           H15-C7-C5-H12= 65.76          C5-C7-C6-C3=357.75            
C5-C7-C6-C4=256.50            C5-C7-C6-H13=113.16           H14-C7-C6-C3=238.83           H14-C7-C6-C4=137.58           
H14-C7-C6-H13=354.24          H15-C7-C6-C3=111.26           H15-C7-C6-C4= 10.01           H15-C7-C6-H13=226.67          
           -------------------------------------------------
          |                Final Singlepoint                |
           -------------------------------------------------

          ...................................................
          :                      SETUP                      :
          :.................................................:
          :  # basis functions                  36          :
          :  # atomic orbitals                  36          :
          :  # shells                           22          :
          :  # electrons                        36          :
          :  max. iterations                   250          :
          :  Hamiltonian                  GFN2-xTB          :
          :  restarted?                      false          :
          :  GBSA solvation                  false          :
          :  PC potential                    false          :
          :  electronic temp.          300.0000000     K    :
          :  accuracy                    1.0000000          :
          :  -> integral cutoff          0.2500000E+02      :
          :  -> integral neglect         0.1000000E-07      :
          :  -> SCF convergence          0.1000000E-05 Eh   :
          :  -> wf. convergence          0.1000000E-03 e    :
          :  Broyden damping             0.4000000          :
          :  net charge                          0          :
          :  unpaired electrons                  0          :
          ...................................................

 iter      E             dE          RMSdq      gap      omega  full diag
   1    -19.3002325 -0.193002E+02  0.110E-04    3.43       0.0  T
   2    -19.3002325 -0.554579E-11  0.885E-05    3.43     291.7  T
   3    -19.3002325 -0.104155E-09  0.320E-05    3.43     806.5  T

   *** convergence criteria satisfied after 3 iterations ***

         #    Occupation            Energy/Eh            Energy/eV
      -------------------------------------------------------------
         1        2.0000           -0.6506436             -17.7049
       ...           ...                  ...                  ...
        12        2.0000           -0.4575374             -12.4502
        13        2.0000           -0.4472314             -12.1698
        14        2.0000           -0.4407618             -11.9937
        15        2.0000           -0.4300831             -11.7032
        16        2.0000           -0.4282539             -11.6534
        17        2.0000           -0.3924051             -10.6779
        18        2.0000           -0.3624111              -9.8617 (HOMO)
        19                         -0.2361778              -6.4267 (LUMO)
        20                         -0.1631401              -4.4393
        21                         -0.0005452              -0.0148
        22                          0.0489638               1.3324
        23                          0.0916397               2.4936
       ...                                ...                  ...
        36                          0.7778725              21.1670
      -------------------------------------------------------------
                  HL-Gap            0.1262333 Eh            3.4350 eV
             Fermi-level           -0.2992945 Eh           -8.1442 eV

 SCC (total)                   0 d,  0 h,  0 min,  0.002 sec
 SCC setup                      ...        0 min,  0.000 sec (  1.046%)
 Dispersion                     ...        0 min,  0.000 sec (  0.784%)
 classical contributions        ...        0 min,  0.000 sec (  0.392%)
 integral evaluation            ...        0 min,  0.000 sec ( 17.304%)
 iterations                     ...        0 min,  0.001 sec ( 30.010%)
 molecular gradient             ...        0 min,  0.001 sec ( 49.263%)
 printout                       ...        0 min,  0.000 sec (  0.986%)

         :::::::::::::::::::::::::::::::::::::::::::::::::::::
         ::                     SUMMARY                     ::
         :::::::::::::::::::::::::::::::::::::::::::::::::::::
         :: total energy             -18.973829380282 Eh    ::
         :: gradient norm              0.000962795960 Eh/a0 ::
         :: HOMO-LUMO gap              3.434982131189 eV    ::
         ::.................................................::
         :: SCC energy               -19.300214400522 Eh    ::
         :: -> isotropic ES            0.001818625513 Eh    ::
         :: -> anisotropic ES          0.003197039895 Eh    ::
         :: -> anisotropic XC          0.013035968725 Eh    ::
         :: -> dispersion             -0.010327382265 Eh    ::
         :: repulsion energy           0.326385020240 Eh    ::
         :: add. restraining           0.000000000000 Eh    ::
         :: total charge              -0.000000000000 e     ::
         :::::::::::::::::::::::::::::::::::::::::::::::::::::

           ------------------------------------------------- 
          |                Numerical Hessian                |
           ------------------------------------------------- 
step length          :   0.00500
SCC accuracy         :   0.30000
Hessian scale factor :   1.00000
frozen atoms in %    :   0.00000    0
RMS gradient         :   0.00096
estimated CPU  time      0.01 min
estimated wall time      0.00 min

writing file <hessian>.

 projected vibrational frequencies (cm⁻¹)
eigval :       -0.00    -0.00    -0.00     0.00     0.00     0.00
eigval :      189.63   237.58   391.09   466.20   633.22   694.13
eigval :      728.38   746.39   767.11   858.10   870.84   900.64
eigval :      947.52   977.23  1005.66  1009.29  1059.93  1084.83
eigval :     1116.44  1126.17  1153.88  1181.50  1193.35  1226.81
eigval :     1269.07  1274.80  1303.46  1452.18  1462.27  1599.80
eigval :     1686.78  2944.59  2958.11  2970.91  2986.86  2998.49
eigval :     3108.47  3121.99  3134.43
           -------------------------------------------------
          |                Property Printout                |
           -------------------------------------------------

    * Orbital Energies and Occupations

         #    Occupation            Energy/Eh            Energy/eV
      -------------------------------------------------------------
         1        2.0000           -0.6506437             -17.7049
       ...           ...                  ...                  ...
         6        2.0000           -0.5472183             -14.8906
         7        2.0000           -0.5299937             -14.4219
         8        2.0000           -0.5151417             -14.0177
         9        2.0000           -0.5124078             -13.9433
        10        2.0000           -0.4847311             -13.1902
        11        2.0000           -0.4822776             -13.1234
        12        2.0000           -0.4575373             -12.4502
        13        2.0000           -0.4472315             -12.1698
        14        2.0000           -0.4407618             -11.9937
        15        2.0000           -0.4300831             -11.7032
        16        2.0000           -0.4282540             -11.6534
        17        2.0000           -0.3924051             -10.6779
        18        2.0000           -0.3624112              -9.8617 (HOMO)
        19                         -0.2361778              -6.4267 (LUMO)
        20                         -0.1631401              -4.4393
        21                         -0.0005453              -0.0148
        22                          0.0489636               1.3324
        23                          0.0916397               2.4936
        24                          0.1238004               3.3688
        25                          0.1388678               3.7788
        26                          0.1500253               4.0824
        27                          0.1767654               4.8100
        28                          0.1880719               5.1177
        29                          0.1956510               5.3239
       ...                                ...                  ...
        36                          0.7778724              21.1670
      -------------------------------------------------------------
                  HL-Gap            0.1262334 Eh            3.4350 eV
             Fermi-level           -0.2992945 Eh           -8.1442 eV

     #   Z          covCN         q      C6AA      α(0)
     1   6 C        2.919    -0.037    28.911     8.817
     2   6 C        3.015    -0.033    28.805     8.804
     3   6 C        3.399    -0.001    24.162     7.596
     4   6 C        3.846    -0.055    21.532     6.600
     5   6 C        3.181    -0.053    28.873     8.771
     6   6 C        4.183    -0.033    21.080     6.521
     7   6 C        4.123    -0.056    21.487     6.584
     8   1 H        0.926     0.034     2.524     2.485
     9   1 H        0.926     0.030     2.592     2.518
    10   1 H        0.924     0.035     2.513     2.479
    11   1 H        0.924     0.045     2.379     2.412
    12   1 H        0.926     0.021     2.712     2.575
    13   1 H        0.924     0.031     2.566     2.505
    14   1 H        0.924     0.031     2.573     2.509
    15   1 H        0.925     0.040     2.451     2.448

 Mol. C6AA /au·bohr⁶  :       2264.123619
 Mol. C8AA /au·bohr⁸  :      53684.819266
 Mol. α(0) /au        :         73.624491


Wiberg/Mayer (AO) data.
largest (>0.10) Wiberg bond orders for each atom

 ---------------------------------------------------------------------------
     #   Z sym  total        # sym  WBO       # sym  WBO       # sym  WBO
 ---------------------------------------------------------------------------
     1   6 C    3.990 --     2 C    1.843     3 C    1.098     8 H    0.967
     2   6 C    3.987 --     1 C    1.843     4 C    1.017     9 H    0.971
                             5 C    0.112
     3   6 C    3.965 --     5 C    1.782     1 C    1.098     6 C    0.988
     4   6 C    3.998 --     2 C    1.017     6 C    0.990    10 H    0.973
                            11 H    0.956
     5   6 C    3.972 --     3 C    1.782     7 C    1.026    12 H    0.970
                             2 C    0.112
     6   6 C    3.983 --     4 C    0.990     3 C    0.988     7 C    0.976
                            13 H    0.964
     7   6 C    3.990 --     5 C    1.026     6 C    0.976    14 H    0.971
                            15 H    0.964
     8   1 H    0.999 --     1 C    0.967
     9   1 H    0.999 --     2 C    0.971
    10   1 H    0.999 --     4 C    0.973
    11   1 H    0.998 --     4 C    0.956
    12   1 H    1.000 --     5 C    0.970
    13   1 H    0.999 --     6 C    0.964
    14   1 H    0.999 --     7 C    0.971
    15   1 H    0.998 --     7 C    0.964
 ---------------------------------------------------------------------------

Topologies differ in total number of bonds
Writing topology from bond orders to xtbtopo.mol

molecular dipole:
                 x           y           z       tot (Debye)
 q only:        0.088      -0.059       0.191
   full:        0.080      -0.063       0.274       0.743
molecular quadrupole (traceless):
                xx          xy          yy          xz          yz          zz
 q only:       -0.175       0.444       0.232       0.404       0.067      -0.057
  q+dip:       -0.334       0.405       1.014       0.975      -0.573      -0.680
   full:       -0.133       0.385       0.419       0.339      -0.138      -0.286

           -------------------------------------------------
          |                Geometry Summary                 |
           -------------------------------------------------

      molecular mass/u    :       92.1386773
   center of mass at/Å    :        0.0498409      -0.0156669      -0.0387189
  moments of inertia/u·Å² :        0.8911964E+02   0.1713812E+03   0.2379096E+03
rotational constants/cm⁻¹ :        0.1891573E+00   0.9836334E-01   0.7085730E-01

 * 15 selected distances

     #   Z          #   Z                                           value/Å
     1   6 C        2   6 C                                       1.3384342
     1   6 C        3   6 C                                       1.4441376
     3   6 C        5   6 C                                       1.3414512
     3   6 C        6   6 C                                       1.5075969
     4   6 C        6   6 C                                       1.5315466
     5   6 C        7   6 C                                       1.5107840
     6   6 C        7   6 C                                       1.5581285 (max)
     1   6 C        8   1 H                                       1.0745049
     2   6 C        9   1 H                                       1.0769279
     4   6 C       10   1 H                                       1.0905264
     4   6 C       11   1 H                                       1.0935625
     5   6 C       12   1 H                                       1.0741591 (min)
     6   6 C       13   1 H                                       1.0905061
     7   6 C       14   1 H                                       1.0909562
Molecule has no symmetry elements
It seems to be the C1 point group
     7   6 C       15   1 H                                       1.0885114

 * 2 distinct bonds (by element types)

   Z      Z             #   av. dist./Å        max./Å        min./Å
   1 H    6 C           8     1.0849568     1.0935625     1.0741591
   6 C    6 C           7     1.4617256     1.5581285     1.3384342

           -------------------------------------------------
          |               Frequency Printout                |
           -------------------------------------------------
 projected vibrational frequencies (cm⁻¹)
eigval :       -0.00    -0.00    -0.00     0.00     0.00     0.00
eigval :      189.63   237.58   391.09   466.20   633.22   694.13
eigval :      728.38   746.39   767.11   858.10   870.84   900.64
eigval :      947.52   977.23  1005.66  1009.29  1059.93  1084.83
eigval :     1116.44  1126.17  1153.88  1181.50  1193.35  1226.81
eigval :     1269.07  1274.80  1303.46  1452.18  1462.27  1599.80
eigval :     1686.78  2944.59  2958.11  2970.91  2986.86  2998.49
eigval :     3108.47  3121.99  3134.43
 reduced masses (amu)
   1: 10.08   2: 10.02   3: 10.95   4: 10.32   5: 10.77   6:  9.89   7:  7.07   8:  9.44
   9:  6.91  10:  8.40  11:  9.55  12:  9.19  13:  9.96  14:  4.40  15:  3.60  16:  4.09
  17:  6.81  18:  5.43  19:  6.64  20:  7.16  21:  5.69  22:  7.36  23:  3.45  24:  3.42
  25:  4.86  26:  4.75  27:  4.27  28:  7.02  29:  7.38  30:  6.59  31:  6.40  32:  7.14
  33:  5.75  34:  2.11  35:  2.10  36: 11.35  37: 11.69  38:  1.85  39:  1.83  40:  1.78
  41:  1.65  42:  1.64  43:  1.81  44:  1.91  45:  1.93
 IR intensities (km·mol⁻¹)
   1:  0.13   2:  0.00   3:  0.04   4:  0.07   5:  0.02   6:  0.16   7:  0.40   8:  0.64
   9:  1.06  10:  5.01  11:  3.27  12:  1.79  13:  4.82  14:  1.97  15: 21.39  16:  0.49
  17:  0.97  18:  0.23  19:  3.55  20:  9.41  21:  1.05  22:  0.94  23:  2.53  24:  0.47
  25:  1.98  26:  1.08  27:  1.55  28:  5.93  29:  3.64  30:  3.03  31:  0.15  32:  2.38
  33:  0.96  34:  0.42  35:  2.94  36:  5.46  37:  1.39  38: 17.17  39: 25.09  40: 86.33
  41: 60.65  42: 49.09  43: 22.79  44: 46.29  45: 50.03
 Raman intensities (Ä⁴*amu⁻¹)
   1:  0.00   2:  0.00   3:  0.00   4:  0.00   5:  0.00   6:  0.00   7:  0.00   8:  0.00
   9:  0.00  10:  0.00  11:  0.00  12:  0.00  13:  0.00  14:  0.00  15:  0.00  16:  0.00
  17:  0.00  18:  0.00  19:  0.00  20:  0.00  21:  0.00  22:  0.00  23:  0.00  24:  0.00
  25:  0.00  26:  0.00  27:  0.00  28:  0.00  29:  0.00  30:  0.00  31:  0.00  32:  0.00
  33:  0.00  34:  0.00  35:  0.00  36:  0.00  37:  0.00  38:  0.00  39:  0.00  40:  0.00
  41:  0.00  42:  0.00  43:  0.00  44:  0.00  45:  0.00
 output can be read by thermo (or use thermo option).
 writing <g98.out> molden fake output.
 recommended (thermochemical) frequency scaling factor: 1.0
           -------------------------------------------------
          |             Thermodynamic Functions             |
           -------------------------------------------------

c1  symmetry found (for desy threshold:  0.10E+00) used in thermo

          ...................................................
          :                      SETUP                      :
          :.................................................:
          :  # frequencies                          39      :
          :  # imaginary freq.                       0      :
          :  linear?                             false      :
          :  only rotor calc.                    false      :
          :  symmetry                               c1      :
          :  rotational number                       1      :
          :  scaling factor                  1.0000000      :
          :  rotor cutoff                   50.0000000 cm⁻¹ :
          :  imag. cutoff                  -20.0000000 cm⁻¹ :
          :.................................................:

    mode    ω/cm⁻¹     T·S(HO)/kcal·mol⁻¹    T·S(FR)/kcal·mol⁻¹   T·S(vib)
   ------------------------------------------------------------------------
       1    189.63    -0.66530 ( 99.52%)    -0.66148 (  0.48%)    -0.66528
Note: The following floating-point exceptions are signalling: IEEE_UNDERFLOW_FLAG
normal termination of xtb
       2    237.58    -0.54292 ( 99.80%)    -0.59474 (  0.20%)    -0.54302
   ------------------------------------------------------------------------

   temp. (K)  partition function   enthalpy   heat capacity  entropy
                                   cal/mol     cal/K/mol   cal/K/mol   J/K/mol
 298.15  VIB   4.30                 1727.269     16.377      8.690
         ROT  0.146E+06              888.752      2.981     26.607
         INT  0.625E+06             2616.021     19.358     35.297
         TR   0.856E+27             1481.254      4.968     39.456
         TOT                        4097.2748    24.3257    74.7534   312.7682

       T/K    H(0)-H(T)+PV         H(T)/Eh          T*S/Eh         G(T)/Eh
   ------------------------------------------------------------------------
    298.15    0.652942E-02    0.131460E+00    0.355178E-01    0.959421E-01
   ------------------------------------------------------------------------

         :::::::::::::::::::::::::::::::::::::::::::::::::::::
         ::                  THERMODYNAMIC                  ::
         :::::::::::::::::::::::::::::::::::::::::::::::::::::
         :: total free energy         -18.877887293460 Eh   ::
         ::.................................................::
         :: total energy              -18.973829380283 Eh   ::
         :: zero point energy           0.124930414051 Eh   ::
         :: G(RRHO) w/o ZPVE           -0.028988327228 Eh   ::
         :: G(RRHO) contrib.            0.095942086823 Eh   ::
         :::::::::::::::::::::::::::::::::::::::::::::::::::::

optimized geometry written to: xtbopt.xyz


           -------------------------------------------------
          | TOTAL ENERGY              -18.973829380283 Eh   |
          | TOTAL ENTHALPY            -18.842369543146 Eh   |
          | TOTAL FREE ENERGY         -18.877887293460 Eh   |
          | GRADIENT NORM               0.000962745188 Eh/α |
          | HOMO-LUMO GAP               3.434984577425 eV   |
           -------------------------------------------------

------------------------------------------------------------------------
 * finished run on 2026/09/04 at 18:38:20.640     
------------------------------------------------------------------------
 total:
 * wall-time:     0 d,  0 h,  0 min,  0.320 sec
 *  cpu-time:     0 d,  0 h,  0 min,  0.470 sec
 * ratio c/w:     1.471 speedup
 SCF:
 * wall-time:     0 d,  0 h,  0 min,  0.004 sec
 *  cpu-time:     0 d,  0 h,  0 min,  0.007 sec
 * ratio c/w:     1.673 speedup
 ANC optimizer:
 * wall-time:     0 d,  0 h,  0 min,  0.067 sec
 *  cpu-time:     0 d,  0 h,  0 min,  0.101 sec
 * ratio c/w:     1.503 speedup
 analytical hessian:
 * wall-time:     0 d,  0 h,  0 min,  0.245 sec
 *  cpu-time:     0 d,  0 h,  0 min,  0.360 sec
 * ratio c/w:     1.465 speedup

