15
 energy: -18.973829380282 gnorm: 0.000962795960 xtb: 6.7.1 (unknown)
C           -0.85226831053923       -1.21259234917829       -0.63417949603583
C           -0.30272998001582       -1.72708280134315        0.47248799600962
C           -0.29806999402686        0.11168813501869       -0.79127355064741
C            0.67677376446267       -0.78903120697556        1.15487717419126
C           -0.55108533904378        1.42871792491568       -0.82138444700950
C            0.94100671979965        0.24562752845812        0.05701710442989
C            0.61212480186168        1.76846493048537        0.08082499158564
H           -1.61181960330162       -1.66402999528811       -1.24560932279538
H           -0.54548387096130       -2.68113786484510        0.90909183177013
H            1.57349764056444       -1.30667103386811        1.49719699267109
H            0.19071261157139       -0.34149282851910        2.02627412214378
H           -1.31070784964539        2.04261081699944       -1.26851611838982
H            1.88004747471970        0.03663348035948       -0.45652676795830
H            1.38944820978147        2.42135150932535       -0.31879055927052
H            0.30031709561979        2.13646070622393        1.05663849235622
