10
SMILES:[H]C([H])=C([H])C([H])=C([H])[H] Energy:-56.750443eV
C      -0.725891713304702      1.528983715903061     -0.304776244813427
C      -0.638154147133821     -1.467079938740995      0.093207796088235
C       0.395537960847412      0.777873798764633     -0.254939983337003
C       0.438024640738006     -0.665147593899438     -0.058402200072386
H      -1.726515840738718      1.101153309165007     -0.197409942547441
H      -0.670711346007503      2.608364167093307     -0.454630964331430
H      -1.663091819617216     -1.086097916614032      0.079606937582623
H      -0.519622111752757     -2.542447853160754      0.234988757135624
H       1.371835019441938      1.265275310282375     -0.366152016846653
H       1.441887155956141     -1.106701063184778     -0.038747954954851
10
SMILES:[H]C1=C([H])C([H])([H])C1([H])[H] Energy:-56.191196eV
C      -0.769805417003736      0.798843891518050      0.000254079633370
C      -0.768529513118224     -0.800050930496607     -0.000220993483714
C       0.748299331509487      0.671675417834313     -0.000008384689723
C       0.749370326389060     -0.670459938053760      0.000011172652130
H      -1.197543026760670      1.266367600806573      0.897115868156024
H      -1.196882588051911      1.267632049086240     -0.896284373663301
H      -1.195538413353135     -1.268256678620946     -0.897074347005671
H      -1.194840175714768     -1.269520204961039      0.896325908981636
H       1.538713302063525      1.406609462682965     -0.000653003499970
H       1.540956163750508     -1.404131570931729      0.000640136126014
10
SMILES:[H][C+]1C([H])([H])[C-]([H])C1([H])[H] Energy:-54.450096eV
C      -0.869806935840325      0.575339355138496     -0.202946472687761
C      -0.657799994906310     -0.929464591372563     -0.201013808204270
C       0.490025236155917      0.904391499852922      0.391432062933780
C       0.703299268707781     -0.600780355589237      0.390551934425241
H       0.435913115350174      1.436770832218023      1.362545317198358
H      -1.781425482977711      1.020688334078942      0.178848264083518
H      -0.608377665601345     -1.463314752756146     -1.171544299546863
H      -1.390856787164171     -1.482331357414296      0.420588450266526
H       1.223922299188887      1.460364065766417     -0.226413395625497
H       1.612502813516833     -1.043718743941116     -0.000294080178004
