 Entering Gaussian System
 *********************************************
 Gaussian 98:
 frequency output generated by the xtb code
 *********************************************
                         Standard orientation:
 --------------------------------------------------------------------
  Center     Atomic     Atomic              Coordinates (Angstroms)
  Number     Number      Type              X           Y           Z
 --------------------------------------------------------------------
    1          6             0       -0.754724    0.774793    0.000183
    2          6             0       -0.753486   -0.775976   -0.000151
    3          6             0        0.744744    0.665038    0.000025
    4          6             0        0.745804   -0.663828   -0.000022
    5          1             0       -1.188639    1.232407    0.888033
    6          1             0       -1.188869    1.232810   -0.887333
    7          1             0       -1.186688   -1.234282   -0.887992
    8          1             0       -1.186882   -1.234686    0.887374
    9          1             0        1.510339    1.419858    0.000010
   10          1             0        1.512602   -1.417425   -0.000022
 --------------------------------------------------------------------
     1 basis functions        1 primitive gaussians
     1 alpha electrons        1 beta electrons

 Harmonic frequencies (cm**-1), IR intensities (km*mol⁻¹),
 Raman scattering activities (A**4/amu), Raman depolarization ratios,
 reduced masses (AMU), force constants (mDyne/A) and normal coordinates:
                      1                      2                      3
                        a                      a                      a 
 Frequencies --   318.8022               696.2692               820.3484
 Red. masses --     5.7260                 1.6747                 3.6165
 Frc consts  --     0.0000                 0.0000                 0.0000
 IR Inten    --     0.0000                24.4818                 0.0000
 Raman Activ --     0.0000                 0.0000                 0.0000
 Depolar     --     0.0000                 0.0000                 0.0000
 Atom AN      X      Y      Z        X      Y      Z        X      Y      Z
   1   6     0.00  -0.00   0.20    -0.00   0.00   0.15    -0.00  -0.00   0.00
   2   6     0.00   0.00  -0.20     0.00   0.00   0.15    -0.00   0.00  -0.00
   3   6    -0.00   0.00  -0.42    -0.00  -0.00   0.10    -0.00   0.00  -0.34
   4   6    -0.00  -0.00   0.42     0.00  -0.00   0.10    -0.00  -0.00   0.34
   5   1     0.20  -0.14   0.23    -0.21   0.22  -0.19     0.06   0.05   0.01
   6   1    -0.20   0.14   0.23     0.21  -0.22  -0.19    -0.06  -0.05   0.01
   7   1     0.20   0.14  -0.23     0.21   0.22  -0.19     0.06  -0.05  -0.01
   8   1    -0.20  -0.14  -0.23    -0.21  -0.22  -0.19    -0.06   0.05  -0.01
   9   1    -0.00   0.00  -0.26    -0.00   0.00  -0.46     0.00  -0.00   0.61
  10   1    -0.00  -0.00   0.26     0.00   0.00  -0.46     0.00   0.00  -0.61
                      4                      5                      6
                        a                      a                      a 
 Frequencies --   864.5296               867.9828               964.1371
 Red. masses --    10.8163                 2.1973                 5.0520
 Frc consts  --     0.0000                 0.0000                 0.0000
 IR Inten    --     3.4956                 3.7927                 5.9976
 Raman Activ --     0.0000                 0.0000                 0.0000
 Depolar     --     0.0000                 0.0000                 0.0000
 Atom AN      X      Y      Z        X      Y      Z        X      Y      Z
   1   6    -0.29   0.30   0.00    -0.00   0.00  -0.14    -0.34   0.12   0.00
   2   6     0.29   0.30   0.00     0.00   0.00  -0.14     0.34   0.12   0.00
   3   6    -0.38  -0.35  -0.00    -0.00  -0.00   0.18     0.23   0.02  -0.00
   4   6     0.38  -0.35  -0.00     0.00  -0.00   0.18    -0.23   0.02  -0.00
   5   1    -0.06   0.11   0.00    -0.04  -0.35   0.13    -0.22  -0.10   0.00
   6   1    -0.06   0.11  -0.00     0.04   0.35   0.13    -0.22  -0.10  -0.00
   7   1     0.06   0.11   0.00     0.05  -0.35   0.13     0.22  -0.10   0.00
   8   1     0.06   0.11  -0.00    -0.04   0.35   0.13     0.22  -0.10  -0.00
   9   1    -0.15  -0.05   0.00    -0.00  -0.00  -0.41     0.35  -0.28  -0.00
  10   1     0.15  -0.05   0.00     0.00  -0.00  -0.41    -0.35  -0.28  -0.00
                      7                      8                      9
                        a                      a                      a 
 Frequencies --   985.8853              1004.3514              1032.6890
 Red. masses --     7.3948                 5.2785                 2.6400
 Frc consts  --     0.0000                 0.0000                 0.0000
 IR Inten    --     0.0046                 0.0000                 0.0139
 Raman Activ --     0.0000                 0.0000                 0.0000
 Depolar     --     0.0000                 0.0000                 0.0000
 Atom AN      X      Y      Z        X      Y      Z        X      Y      Z
   1   6    -0.06  -0.51  -0.00     0.00   0.00  -0.36    -0.22   0.02   0.00
   2   6    -0.06   0.51   0.00     0.00  -0.00   0.36    -0.22  -0.02  -0.00
   3   6     0.17   0.04   0.00    -0.00  -0.00   0.26     0.15  -0.06  -0.00
   4   6     0.17  -0.04  -0.00    -0.00   0.00  -0.26     0.15   0.06   0.00
   5   1    -0.16  -0.26  -0.01     0.37  -0.01   0.10    -0.11  -0.05  -0.00
   6   1    -0.16  -0.26   0.01    -0.37   0.01   0.10    -0.11  -0.05   0.00
   7   1    -0.16   0.26   0.01     0.37   0.01  -0.10    -0.11   0.05   0.00
   8   1    -0.16   0.26  -0.01    -0.37  -0.01  -0.10    -0.11   0.05  -0.00
   9   1    -0.07   0.13   0.00     0.00  -0.00   0.07     0.46  -0.43  -0.00
  10   1    -0.07  -0.13  -0.00     0.00   0.00  -0.07     0.46   0.43   0.00
                     10                     11                     12
                        a                      a                      a 
 Frequencies --  1063.5112              1127.8573              1170.6912
 Red. masses --     2.9844                 3.2537                 9.2525
 Frc consts  --     0.0000                 0.0000                 0.0000
 IR Inten    --     1.0770                 0.0000                 3.7534
 Raman Activ --     0.0000                 0.0000                 0.0000
 Depolar     --     0.0000                 0.0000                 0.0000
 Atom AN      X      Y      Z        X      Y      Z        X      Y      Z
   1   6    -0.00   0.00  -0.19    -0.00   0.00   0.32     0.34  -0.26   0.00
   2   6     0.00   0.00  -0.19    -0.00  -0.00  -0.32     0.33   0.26  -0.00
   3   6    -0.00  -0.00   0.23     0.00   0.00   0.04    -0.44  -0.05   0.00
   4   6     0.00  -0.00   0.23     0.00  -0.00  -0.04    -0.44   0.05  -0.00
   5   1     0.38   0.19   0.04     0.17   0.41  -0.04     0.13  -0.08   0.02
   6   1    -0.38  -0.19   0.04    -0.17  -0.41  -0.04     0.13  -0.08  -0.02
   7   1    -0.38   0.19   0.04     0.17  -0.41   0.04     0.13   0.08  -0.02
   8   1     0.38  -0.19   0.04    -0.17   0.41   0.04     0.13   0.08   0.02
   9   1    -0.00   0.00  -0.21    -0.00   0.00  -0.08     0.11  -0.26  -0.00
  10   1     0.00   0.00  -0.21    -0.00  -0.00   0.08     0.11   0.26   0.00
                     13                     14                     15
                        a                      a                      a 
 Frequencies --  1198.3425              1208.5542              1267.1754
 Red. masses --     4.1682                 5.9051                 8.1135
 Frc consts  --     0.0000                 0.0000                 0.0000
 IR Inten    --     3.4433                 2.0046                 0.7193
 Raman Activ --     0.0000                 0.0000                 0.0000
 Depolar     --     0.0000                 0.0000                 0.0000
 Atom AN      X      Y      Z        X      Y      Z        X      Y      Z
   1   6     0.17   0.21   0.00    -0.28  -0.36  -0.00     0.38   0.09  -0.00
   2   6    -0.17   0.21   0.00    -0.28   0.36   0.00    -0.38   0.09   0.00
   3   6     0.21  -0.16  -0.00     0.10  -0.04   0.00    -0.41   0.09   0.00
   4   6    -0.21  -0.16  -0.00     0.10   0.04  -0.00     0.41   0.09   0.00
   5   1    -0.24  -0.22   0.00     0.29   0.23   0.01    -0.11  -0.18   0.00
   6   1    -0.24  -0.22  -0.00     0.29   0.23  -0.01    -0.11  -0.18  -0.00
   7   1     0.24  -0.22   0.00     0.29  -0.23  -0.01     0.11  -0.18   0.00
   8   1     0.24  -0.22  -0.00     0.29  -0.23   0.01     0.11  -0.18  -0.00
   9   1    -0.26   0.27   0.00     0.03  -0.01  -0.00     0.16  -0.25  -0.00
  10   1     0.26   0.27   0.00     0.03   0.01   0.00    -0.16  -0.25  -0.00
                     16                     17                     18
                        a                      a                      a 
 Frequencies --  1451.3122              1466.0745              1660.2709
 Red. masses --     1.9776                 2.3734                11.2006
 Frc consts  --     0.0000                 0.0000                 0.0000
 IR Inten    --     0.0124                 1.5344                 2.5535
 Raman Activ --     0.0000                 0.0000                 0.0000
 Depolar     --     0.0000                 0.0000                 0.0000
 Atom AN      X      Y      Z        X      Y      Z        X      Y      Z
   1   6    -0.14   0.15   0.00     0.16  -0.18  -0.00    -0.02   0.00   0.00
   2   6     0.14   0.15   0.00     0.16   0.18   0.00    -0.02  -0.00  -0.00
   3   6    -0.00   0.00   0.00    -0.03   0.06  -0.00    -0.06   0.68   0.00
   4   6     0.00   0.00   0.00    -0.03  -0.06   0.00    -0.06  -0.68  -0.00
   5   1     0.27  -0.28   0.28    -0.24   0.29  -0.28     0.05  -0.00   0.03
   6   1     0.27  -0.28  -0.28    -0.24   0.29   0.28     0.05  -0.00  -0.03
   7   1    -0.27  -0.28   0.28    -0.24  -0.29   0.28     0.05   0.00  -0.03
   8   1    -0.27  -0.28  -0.28    -0.24  -0.29  -0.28     0.05   0.00   0.03
   9   1    -0.01   0.01   0.00     0.02  -0.02  -0.00     0.17   0.05  -0.00
  10   1     0.01   0.01   0.00     0.02   0.02   0.00     0.17  -0.05  -0.00
                     19                     20                     21
                        a                      a                      a 
 Frequencies --  2977.7134              2996.9689              3000.9013
 Red. masses --     1.9968                 2.0418                 1.4696
 Frc consts  --     0.0000                 0.0000                 0.0000
 IR Inten    --     0.0001                78.7486                48.8080
 Raman Activ --     0.0000                 0.0000                 0.0000
 Depolar     --     0.0000                 0.0000                 0.0000
 Atom AN      X      Y      Z        X      Y      Z        X      Y      Z
   1   6    -0.00   0.00   0.21     0.00  -0.00  -0.22     0.10  -0.11   0.00
   2   6    -0.00  -0.00  -0.21    -0.00  -0.00  -0.22    -0.10  -0.11   0.00
   3   6    -0.00   0.00   0.00     0.00  -0.00  -0.00     0.00  -0.00   0.00
   4   6    -0.00  -0.00  -0.00    -0.00  -0.00  -0.00    -0.00  -0.00   0.00
   5   1     0.20  -0.20  -0.38    -0.20   0.21   0.39    -0.18   0.19   0.41
   6   1    -0.20   0.20  -0.38     0.19  -0.20   0.38    -0.18   0.19  -0.42
   7   1     0.20   0.21   0.38     0.20   0.21   0.39     0.18   0.19   0.41
   8   1    -0.20  -0.20   0.38    -0.19  -0.20   0.38     0.18   0.19  -0.42
   9   1     0.00   0.00   0.00    -0.00  -0.00   0.00    -0.00  -0.01  -0.00
  10   1     0.00  -0.00  -0.00     0.00  -0.00   0.00     0.00  -0.01  -0.00
                     22                     23                     24
                        a                      a                      a 
 Frequencies --  3002.8698              3108.1812              3127.3778
 Red. masses --     1.4848                 1.7867                 2.0509
 Frc consts  --     0.0000                 0.0000                 0.0000
 IR Inten    --    45.5054                38.7419                70.2273
 Raman Activ --     0.0000                 0.0000                 0.0000
 Depolar     --     0.0000                 0.0000                 0.0000
 Atom AN      X      Y      Z        X      Y      Z        X      Y      Z
   1   6     0.10  -0.11   0.00     0.00  -0.00   0.00     0.01  -0.00   0.00
   2   6     0.10   0.11  -0.00    -0.00  -0.00   0.00     0.01   0.00  -0.00
   3   6     0.01  -0.00   0.00    -0.13  -0.13   0.00    -0.14  -0.16   0.00
   4   6     0.01   0.00  -0.00     0.13  -0.13  -0.00    -0.14   0.16   0.00
   5   1    -0.18   0.19   0.41    -0.00   0.00   0.00    -0.00   0.00   0.01
   6   1    -0.18   0.19  -0.41    -0.00   0.00  -0.00    -0.00   0.00  -0.01
   7   1    -0.18  -0.19  -0.41     0.00   0.00   0.00    -0.00  -0.00  -0.01
   8   1    -0.18  -0.19   0.42     0.00   0.00  -0.00    -0.00  -0.00   0.01
   9   1    -0.01  -0.01   0.00     0.48   0.48  -0.00     0.48   0.48  -0.00
  10   1    -0.01   0.01  -0.00    -0.48   0.48   0.00     0.48  -0.47  -0.00
