10
 energy: -11.557969664172 gnorm: 0.000184534898 xtb: 6.7.1 (unknown)
C           -0.75472377758410        0.77479278636241        0.00018340480811
C           -0.75348599923458       -0.77597578976116       -0.00015075340521
C            0.74474347042304        0.66503797918268        0.00002478284399
C            0.74580359236164       -0.66382836792346       -0.00002204310561
H           -1.18863929067155        1.23240695962009        0.88803336015150
H           -1.18886861905124        1.23281008439205       -0.88733328703093
H           -1.18668826599396       -1.23428149415552       -0.88799163657312
H           -1.18688139744939       -1.23468561644846        0.88737435845714
H            1.51033844233961        1.41985786848715        0.00000987285974
H            1.51260186900886       -1.41742526438182       -0.00002202232325
