 Entering Gaussian System
 *********************************************
 Gaussian 98:
 frequency output generated by the xtb code
 *********************************************
                         Standard orientation:
 --------------------------------------------------------------------
  Center     Atomic     Atomic              Coordinates (Angstroms)
  Number     Number      Type              X           Y           Z
 --------------------------------------------------------------------
    1          6             0        0.409781    1.511016   -0.011671
    2          6             0        0.353583   -1.514948   -0.079119
    3          6             0       -0.673546    0.742611    0.006966
    4          6             0       -0.693041   -0.710592    0.068386
    5          1             0        0.337987    2.584635   -0.054626
    6          1             0        1.405172    1.102942    0.025435
    7          1             0        1.345348   -1.142604   -0.267790
    8          1             0        0.253727   -2.585456   -0.019412
    9          1             0       -1.649655    1.211381   -0.013692
   10          1             0       -1.669245   -1.146919    0.241152
 --------------------------------------------------------------------
     1 basis functions        1 primitive gaussians
     1 alpha electrons        1 beta electrons

 Harmonic frequencies (cm**-1), IR intensities (km*mol⁻¹),
 Raman scattering activities (A**4/amu), Raman depolarization ratios,
 reduced masses (AMU), force constants (mDyne/A) and normal coordinates:
                      1                      2                      3
                        a                      a                      a 
 Frequencies --   -15.1471               299.8945               469.4992
 Red. masses --     4.9148                 8.4452                 3.2532
 Frc consts  --     0.0000                 0.0000                 0.0000
 IR Inten    --     0.0901                 0.1039                 2.1664
 Raman Activ --     0.0000                 0.0000                 0.0000
 Depolar     --     0.0000                 0.0000                 0.0000
 Atom AN      X      Y      Z        X      Y      Z        X      Y      Z
   1   6     0.01   0.01  -0.23     0.15  -0.52  -0.03     0.03   0.05  -0.14
   2   6     0.04  -0.01   0.22     0.17   0.51   0.00    -0.05   0.05  -0.14
   3   6     0.01   0.01   0.36    -0.21  -0.01   0.01     0.12  -0.08   0.24
   4   6    -0.05  -0.01  -0.35    -0.21   0.01   0.02    -0.08  -0.07   0.26
   5   1    -0.01   0.01   0.10     0.22  -0.14  -0.02    -0.06  -0.00  -0.45
   6   1     0.01   0.00  -0.40    -0.02  -0.30   0.00     0.03   0.10   0.33
   7   1     0.07  -0.00   0.39    -0.01   0.30  -0.00     0.02   0.10   0.33
   8   1    -0.03  -0.01  -0.10     0.22   0.13  -0.01    -0.01  -0.01  -0.45
   9   1     0.00   0.02   0.39    -0.02   0.07   0.00     0.03  -0.03  -0.27
  10   1    -0.06  -0.02  -0.39    -0.02  -0.07   0.00    -0.08  -0.03  -0.26
                      4                      5                      6
                        a                      a                      a 
 Frequencies --   552.6960               733.3213               882.1202
 Red. masses --     7.0736                 6.8590                 3.5481
 Frc consts  --     0.0000                 0.0000                 0.0000
 IR Inten    --     0.1299                 0.0014                 0.2531
 Raman Activ --     0.0000                 0.0000                 0.0000
 Depolar     --     0.0000                 0.0000                 0.0000
 Atom AN      X      Y      Z        X      Y      Z        X      Y      Z
   1   6     0.12   0.17   0.03     0.02   0.02  -0.12     0.00   0.00   0.32
   2   6    -0.11   0.17   0.05     0.03  -0.02   0.12    -0.05  -0.00  -0.33
   3   6     0.39  -0.27  -0.09     0.01   0.02   0.50     0.00  -0.01  -0.09
   4   6    -0.41  -0.26  -0.03    -0.07  -0.02  -0.49     0.02   0.01   0.10
   5   1    -0.23   0.04   0.12    -0.01  -0.01  -0.34    -0.01  -0.03  -0.54
   6   1     0.15   0.31  -0.10     0.00   0.03   0.33     0.02   0.01  -0.23
   7   1    -0.15   0.32  -0.08    -0.05  -0.03  -0.33     0.05  -0.01   0.24
   8   1     0.25   0.03   0.09     0.04   0.01   0.33     0.07   0.03   0.54
   9   1     0.14  -0.01   0.06     0.01   0.01  -0.10     0.01   0.02   0.18
  10   1    -0.12  -0.01   0.08     0.02  -0.01   0.10    -0.02  -0.02  -0.18
                      7                      8                      9
                        a                      a                      a 
 Frequencies --   894.5551               903.6294              1010.0498
 Red. masses --     4.0496                 5.8616                 1.8220
 Frc consts  --     0.0000                 0.0000                 0.0000
 IR Inten    --    24.3212                 0.9680                28.3025
 Raman Activ --     0.0000                 0.0000                 0.0000
 Depolar     --     0.0000                 0.0000                 0.0000
 Atom AN      X      Y      Z        X      Y      Z        X      Y      Z
   1   6     0.01  -0.02  -0.34     0.02   0.33  -0.00     0.00  -0.02  -0.08
   2   6    -0.06  -0.01  -0.33     0.01  -0.34  -0.00    -0.01  -0.02  -0.08
   3   6    -0.00   0.01   0.16    -0.08   0.32  -0.00    -0.01   0.00  -0.17
   4   6     0.03   0.01   0.15    -0.09  -0.32   0.02    -0.02  -0.00  -0.18
   5   1    -0.01   0.02   0.51     0.42   0.12  -0.02    -0.01  -0.01  -0.07
   6   1    -0.00   0.02   0.29    -0.13  -0.26  -0.01    -0.00   0.03   0.41
   7   1     0.05   0.01   0.28    -0.12   0.26   0.03     0.07   0.03   0.43
   8   1     0.08   0.02   0.49     0.42  -0.13  -0.04    -0.00  -0.01  -0.08
   9   1     0.00  -0.00  -0.16    -0.06   0.02  -0.01     0.00   0.04   0.51
  10   1    -0.03  -0.00  -0.16    -0.06  -0.02   0.02     0.08   0.04   0.53
                     10                     11                     12
                        a                      a                      a 
 Frequencies --  1019.8484              1067.2263              1074.6417
 Red. masses --     2.0989                 5.6410                 5.9747
 Frc consts  --     0.0000                 0.0000                 0.0000
 IR Inten    --     0.0875                 5.4206                 0.3133
 Raman Activ --     0.0000                 0.0000                 0.0000
 Depolar     --     0.0000                 0.0000                 0.0000
 Atom AN      X      Y      Z        X      Y      Z        X      Y      Z
   1   6    -0.01   0.01  -0.10    -0.07   0.32  -0.02     0.21  -0.01  -0.01
   2   6     0.00  -0.02   0.10     0.09   0.32  -0.03     0.21  -0.02  -0.02
   3   6     0.01  -0.04  -0.20     0.22  -0.21  -0.02    -0.24   0.36  -0.05
   4   6     0.04   0.04   0.19    -0.24  -0.23   0.02    -0.23  -0.34   0.09
   5   1     0.02   0.00  -0.03     0.36   0.11   0.01    -0.14  -0.00   0.02
   6   1    -0.03  -0.01   0.41    -0.16  -0.27   0.02     0.16   0.26   0.02
   7   1    -0.08   0.02  -0.38     0.16  -0.30  -0.01     0.14  -0.25  -0.05
   8   1     0.03  -0.01   0.02    -0.36   0.12   0.07    -0.11  -0.00   0.00
   9   1    -0.01  -0.00   0.55    -0.01  -0.18   0.03     0.08   0.41   0.02
  10   1    -0.09   0.01  -0.52     0.01  -0.21   0.03     0.06  -0.40  -0.03
                     13                     14                     15
                        a                      a                      a 
 Frequencies --  1285.9871              1333.9366              1390.5941
 Red. masses --     2.6812                 3.4831                 2.1974
 Frc consts  --     0.0000                 0.0000                 0.0000
 IR Inten    --     1.5349                 0.3205                 0.2387
 Raman Activ --     0.0000                 0.0000                 0.0000
 Depolar     --     0.0000                 0.0000                 0.0000
 Atom AN      X      Y      Z        X      Y      Z        X      Y      Z
   1   6    -0.24  -0.01  -0.00    -0.21   0.05  -0.00     0.08   0.03  -0.00
   2   6     0.24  -0.01  -0.04    -0.21  -0.04   0.04    -0.08   0.03   0.01
   3   6     0.09  -0.10   0.02     0.16  -0.20   0.01     0.17   0.14  -0.01
   4   6    -0.09  -0.10   0.03     0.16   0.19  -0.03    -0.16   0.14   0.02
   5   1    -0.03  -0.01  -0.00     0.01   0.00   0.00    -0.49  -0.04  -0.00
   6   1    -0.13  -0.15   0.00    -0.14  -0.18   0.00    -0.17  -0.41   0.02
   7   1     0.12  -0.16  -0.02    -0.13   0.19   0.02     0.16  -0.41  -0.01
   8   1     0.03  -0.01  -0.01     0.01  -0.00  -0.01     0.47  -0.06  -0.08
   9   1     0.30   0.54  -0.03     0.31   0.49  -0.03    -0.03  -0.13   0.01
  10   1    -0.28   0.55   0.02     0.29  -0.50  -0.02     0.03  -0.13   0.00
                     16                     17                     18
                        a                      a                      a 
 Frequencies --  1429.4785              1650.4448              1689.4874
 Red. masses --     2.8762                11.2323                10.8690
 Frc consts  --     0.0000                 0.0000                 0.0000
 IR Inten    --     0.0025                 0.4147                 0.6040
 Raman Activ --     0.0000                 0.0000                 0.0000
 Depolar     --     0.0000                 0.0000                 0.0000
 Atom AN      X      Y      Z        X      Y      Z        X      Y      Z
   1   6    -0.10  -0.02  -0.00    -0.36  -0.27   0.00     0.37   0.26  -0.01
   2   6    -0.10   0.03   0.01    -0.34   0.28   0.05    -0.36   0.28   0.05
   3   6    -0.10  -0.25   0.01     0.33   0.40  -0.01    -0.40  -0.29   0.01
   4   6    -0.09   0.26   0.01     0.31  -0.41  -0.04     0.39  -0.30  -0.05
   5   1     0.47   0.04   0.01     0.09  -0.06   0.00    -0.10   0.07  -0.01
   6   1     0.16   0.39  -0.01    -0.01   0.14   0.00     0.03  -0.12   0.01
   7   1     0.15  -0.40  -0.01    -0.02  -0.14   0.00    -0.03  -0.12   0.01
   8   1     0.47  -0.06  -0.08     0.09   0.06  -0.01     0.10   0.06  -0.02
   9   1     0.03   0.05  -0.01     0.03  -0.04   0.01    -0.01   0.15  -0.01
  10   1     0.03  -0.05   0.00     0.03   0.04  -0.02     0.01   0.15  -0.01
                     19                     20                     21
                        a                      a                      a 
 Frequencies --  3044.7894              3055.4901              3107.3141
 Red. masses --     1.7697                 1.8416                 1.5220
 Frc consts  --     0.0000                 0.0000                 0.0000
 IR Inten    --    14.9633                61.5512                15.3159
 Raman Activ --     0.0000                 0.0000                 0.0000
 Depolar     --     0.0000                 0.0000                 0.0000
 Atom AN      X      Y      Z        X      Y      Z        X      Y      Z
   1   6    -0.01   0.01  -0.00     0.02  -0.02   0.00    -0.15  -0.14   0.00
   2   6     0.01   0.01  -0.00     0.02   0.02  -0.00     0.06  -0.05  -0.01
   3   6     0.16  -0.07   0.00    -0.19   0.08  -0.00     0.02   0.00  -0.00
   4   6    -0.18  -0.07   0.03    -0.17  -0.06   0.03    -0.00   0.01   0.00
   5   1    -0.00  -0.05   0.00    -0.00   0.08  -0.00    -0.07   0.70  -0.03
   6   1     0.04  -0.01   0.00    -0.05   0.02  -0.00     0.53  -0.24   0.02
   7   1    -0.04  -0.01   0.01    -0.05  -0.01   0.01    -0.21  -0.09   0.04
   8   1    -0.00  -0.05   0.00    -0.01  -0.07   0.00     0.03   0.25  -0.02
   9   1    -0.58   0.28  -0.01     0.64  -0.30   0.01    -0.01   0.01  -0.00
  10   1     0.64   0.29  -0.11     0.58   0.26  -0.10    -0.00  -0.00   0.00
                     22                     23                     24
                        a                      a                      a 
 Frequencies --  3110.2731              3129.5187              3135.4708
 Red. masses --     1.5415                 2.1035                 2.0677
 Frc consts  --     0.0000                 0.0000                 0.0000
 IR Inten    --    10.3368                47.3436                47.0038
 Raman Activ --     0.0000                 0.0000                 0.0000
 Depolar     --     0.0000                 0.0000                 0.0000
 Atom AN      X      Y      Z        X      Y      Z        X      Y      Z
   1   6     0.04   0.07  -0.00    -0.17   0.21  -0.01     0.11  -0.12   0.01
   2   6     0.12  -0.17  -0.01     0.11   0.13  -0.02     0.18   0.18  -0.04
   3   6    -0.01   0.00  -0.00    -0.03   0.02  -0.00     0.02  -0.01   0.00
   4   6    -0.02  -0.00   0.00     0.01   0.01  -0.00     0.03   0.02  -0.01
   5   1     0.03  -0.29   0.01     0.02  -0.51   0.02    -0.01   0.27  -0.01
   6   1    -0.15   0.08  -0.01     0.57  -0.22   0.02    -0.39   0.15  -0.01
   7   1    -0.46  -0.20   0.09    -0.36  -0.13   0.07    -0.63  -0.23   0.12
   8   1     0.09   0.75  -0.05    -0.02  -0.32   0.02    -0.02  -0.42   0.02
   9   1     0.02  -0.01   0.00     0.07  -0.04   0.00    -0.06   0.03  -0.00
  10   1     0.03   0.01  -0.01    -0.03  -0.02   0.01    -0.08  -0.04   0.01
