      -----------------------------------------------------------      
     |                   =====================                   |     
     |                           x T B                           |     
     |                   =====================                   |     
     |                         S. Grimme                         |     
     |          Mulliken Center for Theoretical Chemistry        |     
     |                    University of Bonn                     |     
      -----------------------------------------------------------      

   * xtb version 6.7.1 (unknown) compiled by 'runner@Mac-1732184002186.local' on 2024-11-21

   xtb is free software: you can redistribute it and/or modify it under
   the terms of the GNU Lesser General Public License as published by
   the Free Software Foundation, either version 3 of the License, or
   (at your option) any later version.
   
   xtb is distributed in the hope that it will be useful,
   but WITHOUT ANY WARRANTY; without even the implied warranty of
   MERCHANTABILITY or FITNESS FOR A PARTICULAR PURPOSE.  See the
   GNU Lesser General Public License for more details.
   
   Cite this work as:
   * C. Bannwarth, E. Caldeweyher, S. Ehlert, A. Hansen, P. Pracht,
     J. Seibert, S. Spicher, S. Grimme, WIREs Comput. Mol. Sci., 2020, 11,
     e01493. DOI: 10.1002/wcms.1493
   
   for GFN2-xTB:
   * C. Bannwarth, S. Ehlert and S. Grimme., J. Chem. Theory Comput., 2019,
     15, 1652-1671. DOI: 10.1021/acs.jctc.8b01176
   for GFN1-xTB:
   * S. Grimme, C. Bannwarth, P. Shushkov, J. Chem. Theory Comput., 2017,
     13, 1989-2009. DOI: 10.1021/acs.jctc.7b00118
   for GFN0-xTB:
   * P. Pracht, E. Caldeweyher, S. Ehlert, S. Grimme, ChemRxiv, 2019, preprint.
     DOI: 10.26434/chemrxiv.8326202.v1
   for GFN-FF:
   * S. Spicher and S. Grimme, Angew. Chem. Int. Ed., 2020, 59, 15665-15673.
     DOI: 10.1002/anie.202004239
   
   for ALPB and GBSA implicit solvation:
   * S. Ehlert, M. Stahn, S. Spicher, S. Grimme, J. Chem. Theory Comput.,
     2021, 17, 4250-4261. DOI: 10.1021/acs.jctc.1c00471
   
   for ddCOSMO and CPCM-X implicit solvation:
   * M. Stahn, S. Ehlert, S. Grimme, J. Phys. Chem. A,
     2023, XX, XXXX-XXXX. DOI: 10.1021/acs.jpca.3c04382
   
   for DFT-D4:
   * E. Caldeweyher, C. Bannwarth and S. Grimme, J. Chem. Phys., 2017,
     147, 034112. DOI: 10.1063/1.4993215
   * E. Caldeweyher, S. Ehlert, A. Hansen, H. Neugebauer, S. Spicher,
     C. Bannwarth and S. Grimme, J. Chem. Phys., 2019, 150, 154122.
     DOI: 10.1063/1.5090222
   * E. Caldeweyher, J.-M. Mewes, S. Ehlert and S. Grimme, Phys. Chem. Chem. Phys.
     2020, 22, 8499-8512. DOI: 10.1039/D0CP00502A
   
   for sTDA-xTB:
   * S. Grimme and C. Bannwarth, J. Chem. Phys., 2016, 145, 054103.
     DOI: 10.1063/1.4959605
   
   in the mass-spec context:
   * V. Asgeirsson, C. Bauer and S. Grimme, Chem. Sci., 2017, 8, 4879.
     DOI: 10.1039/c7sc00601b
   * J. Koopman and S. Grimme, ACS Omega 2019, 4, 12, 15120-15133.
     DOI: 10.1021/acsomega.9b02011
   
   for metadynamics refer to:
   * S. Grimme, J. Chem. Theory Comput., 2019, 155, 2847-2862
     DOI: 10.1021/acs.jctc.9b00143
   
   for SPH calculations refer to:
   * S. Spicher and S. Grimme, J. Chem. Theory Comput., 2021, 17, 1701-1714
     DOI: 10.1021/acs.jctc.0c01306
   
   for ONIOM refer to:
   * C. Plett, A. Katbashev, S. Ehlert, S. Grimme, M. Bursch,
     Phys. Chem. Chem. Phys., 2023, 25, 17860-17868. DOI: 10.1039/D3CP02178E
   
   for DIPRO refer to:
   * J. Kohn, N. Gildemeister, S. Grimme, D. Fazzi, A. Hansen,
     J. Chem. Phys., 2023, just accepted.
   
   for PTB refer to:
   * S. Grimme, M. Mueller, A. Hansen, J. Chem. Phys., 2023, 158, 124111.
     DOI: 10.1063/5.0137838
   
   with help from (in alphabetical order)
   P. Atkinson, C. Bannwarth, F. Bohle, G. Brandenburg, E. Caldeweyher
   M. Checinski, S. Dohm, S. Ehlert, S. Ehrlich, I. Gerasimov, C. Hölzer
   A. Katbashev, J. Kohn, J. Koopman, C. Lavigne, S. Lehtola, F. März, M. Müller,
   F. Musil, H. Neugebauer, J. Pisarek, C. Plett, P. Pracht, F. Pultar,
   J. Seibert, P. Shushkov, S. Spicher, M. Stahn, M. Steiner, T. Strunk,
   J. Stückrath, T. Rose, and J. Unsleber
   
 * started run on 2026/09/04 at 18:32:21.029     
   ID    Z sym.   atoms
    1    6 C      1-4
    2    1 H      5-10

           -------------------------------------------------
          |                Calculation Setup                |
           -------------------------------------------------

          program call               : /opt/homebrew/bin/xtb temp_frame_opt.xyz --chrg 0 --uhf 0 --gfn 2 --acc 1.0 --etemp 300.0 --parallel 1 --ohess normal --input control.txt
          coordinate file            : temp_frame_opt.xyz
          omp threads                :                     1


molecular fragmentation (1/2 indicates fragments):
1111111112
# atoms in fragment 1/2:     9     1
 fragment masses (1/2) :       53.08        1.01
CMA distance (Bohr)    :   4.281
constraining FC (au)   :  0.0500

           -------------------------------------------------
          |                 G F N 2 - x T B                 |
           -------------------------------------------------

        Reference                      10.1021/acs.jctc.8b01176
      * Hamiltonian:
        H0-scaling (s, p, d)           1.850000    2.230000    2.230000
        zeta-weighting                 0.500000
      * Dispersion:
        s8                             2.700000
        a1                             0.520000
        a2                             5.000000
        s9                             5.000000
      * Repulsion:
        kExp                           1.500000    1.000000
        rExp                           1.000000
      * Coulomb:
        alpha                          2.000000
        third order                    shell-resolved
        anisotropic                    true
        a3                             3.000000
        a5                             4.000000
        cn-shift                       1.200000
        cn-exp                         4.000000
        max-rad                        5.000000

q/qsh data taken from xtbrestart
CAMM data taken from xtbrestart

          ...................................................
          :                      SETUP                      :
          :.................................................:
          :  # basis functions                  22          :
          :  # atomic orbitals                  22          :
          :  # shells                           14          :
          :  # electrons                        22          :
          :  max. iterations                   250          :
          :  Hamiltonian                  GFN2-xTB          :
          :  restarted?                       true          :
          :  GBSA solvation                  false          :
          :  PC potential                    false          :
          :  electronic temp.          300.0000000     K    :
          :  accuracy                    1.0000000          :
          :  -> integral cutoff          0.2500000E+02      :
          :  -> integral neglect         0.1000000E-07      :
          :  -> SCF convergence          0.1000000E-05 Eh   :
          :  -> wf. convergence          0.1000000E-03 e    :
          :  Broyden damping             0.4000000          :
          :  net charge                          0          :
          :  unpaired electrons                  0          :
          ...................................................

 iter      E             dE          RMSdq      gap      omega  full diag
   1    -11.6260503 -0.116261E+02  0.309E+00    3.40       0.0  T
   2    -11.6263534 -0.303138E-03  0.179E+00    3.43       1.0  T
   3    -11.6121537  0.141997E-01  0.146E+00    3.47       1.0  T
   4    -11.6278619 -0.157082E-01  0.110E-01    3.44       1.0  T
   5    -11.6278938 -0.319197E-04  0.769E-02    3.45       1.0  T
   6    -11.6279251 -0.312732E-04  0.316E-02    3.45       1.0  T
   7    -11.6279273 -0.224603E-05  0.658E-03    3.44       4.8  T
   8    -11.6279274 -0.651813E-07  0.325E-03    3.45       9.7  T
   9    -11.6279274 -0.307111E-07  0.463E-04    3.45      68.3  T
  10    -11.6279274 -0.338719E-09  0.121E-04    3.45     261.7  T

   *** convergence criteria satisfied after 10 iterations ***

         #    Occupation            Energy/Eh            Energy/eV
      -------------------------------------------------------------
         1        2.0000           -0.6366058             -17.3229
       ...           ...                  ...                  ...
         5        2.0000           -0.5103147             -13.8864
         6        2.0000           -0.4859312             -13.2229
         7        2.0000           -0.4678809             -12.7317
         8        2.0000           -0.4569455             -12.4341
         9        2.0000           -0.4238532             -11.5336
        10        2.0000           -0.4020694             -10.9409
        11        2.0000           -0.3795085             -10.3270 (HOMO)
        12                         -0.2528833              -6.8813 (LUMO)
        13                         -0.1738017              -4.7294
        14                         -0.1641275              -4.4661
        15                          0.0042339               0.1152
        16                          0.0277705               0.7557
       ...                                ...                  ...
        22                          1.1769646              32.0268
      -------------------------------------------------------------
                  HL-Gap            0.1266252 Eh            3.4456 eV
             Fermi-level           -0.3161959 Eh           -8.6041 eV

 SCC (total)                   0 d,  0 h,  0 min,  0.001 sec
 SCC setup                      ...        0 min,  0.000 sec (  2.006%)
 Dispersion                     ...        0 min,  0.000 sec (  1.343%)
 classical contributions        ...        0 min,  0.000 sec (  0.555%)
 integral evaluation            ...        0 min,  0.000 sec ( 12.771%)
 iterations                     ...        0 min,  0.001 sec ( 48.666%)
 molecular gradient             ...        0 min,  0.000 sec ( 32.671%)
 printout                       ...        0 min,  0.000 sec (  1.737%)

         :::::::::::::::::::::::::::::::::::::::::::::::::::::
         ::                     SUMMARY                     ::
         :::::::::::::::::::::::::::::::::::::::::::::::::::::
         :: total energy             -11.347756221753 Eh    ::
         :: gradient norm              0.546918655095 Eh/a0 ::
         :: HOMO-LUMO gap              3.445648298382 eV    ::
         ::.................................................::
         :: SCC energy               -11.627924679968 Eh    ::
         :: -> isotropic ES            0.001957528957 Eh    ::
         :: -> anisotropic ES          0.002430055274 Eh    ::
         :: -> anisotropic XC          0.015133526689 Eh    ::
         :: -> dispersion             -0.004985826508 Eh    ::
         :: repulsion energy           0.280168458215 Eh    ::
         :: add. restraining           0.000000000000 Eh    ::
         :: total charge              -0.000000000000 e     ::
         :::::::::::::::::::::::::::::::::::::::::::::::::::::

      ----------------------------------------------------------- 
     |                       L-ANC optimizer                     |
      ----------------------------------------------------------- 
          low memory version by Sebastian Ehlert

          ...................................................
          :                      SETUP                      :
          :.................................................:
          :   energy convergence        0.5000000E-05 Eh    :
          :   grad. convergence         0.1000000E-02 Eh/a0 :
          :   optimization log               true           :
          :   writing optlog all                1     steps :
          :   Hessian reset                    25     steps :
          :   maximium step len.        1.0000000     a0    :
          :   LBFGS images                     25           :
          ...................................................
 * calculating model hessian...
Using Lindh-Hessian (1995)
 Shifting diagonal of input Hessian by    1.0000000000000000E-002
 Lowest  eigenvalues of input Hessian
    0.000000    0.000000    0.000000    0.000000    0.000000    0.000000
    0.011264    0.012571    0.016178    0.017927    0.021324    0.036413
    0.047818    0.052648    0.078643    0.084896    0.127684    0.170764
 Highest eigenvalues
    0.637424    0.917065    1.305796    1.558735    1.679190    2.365840


........................................................................
.............................. CYCLE    1 ..............................
........................................................................

 iter      E             dE          RMSdq      gap      omega  full diag
   1    -11.6776636 -0.116777E+02  0.101E+00    3.32       0.0  T
   2    -11.6778287 -0.165123E-03  0.610E-01    3.31       1.0  T
   3    -11.6765665  0.126221E-02  0.569E-01    3.31       1.0  T
   4    -11.6783101 -0.174361E-02  0.551E-02    3.31       1.0  T
   5    -11.6783176 -0.752873E-05  0.351E-02    3.30       1.0  T
   6    -11.6783205 -0.289982E-05  0.165E-02    3.30       1.9  T
   7    -11.6783220 -0.152125E-05  0.704E-03    3.30       4.5  T
   8    -11.6783222 -0.156549E-06  0.164E-03    3.30      19.3  T
   9    -11.6783222 -0.508349E-08  0.138E-04    3.30     229.5  T
  10    -11.6783222 -0.408331E-10  0.583E-05    3.30     542.6  T
     SCC iter.                  ...        0 min,  0.001 sec
     gradient                   ...        0 min,  0.000 sec
 * total energy  :   -11.4807269 Eh     change       -0.1329707E+00 Eh
   gradient norm :     0.1574220 Eh/a0  converged?    E=F G=F D=F
   step length   :     0.5271901 a0

........................................................................
.............................. CYCLE    2 ..............................
........................................................................

 iter      E             dE          RMSdq      gap      omega  full diag
   1    -11.7492190 -0.117492E+02  0.182E+00    3.46       0.0  T
   2    -11.7491825  0.364973E-04  0.107E+00    3.47       1.0  T
   3    -11.7455026  0.367985E-02  0.789E-01    3.48       1.0  T
   4    -11.7496516 -0.414901E-02  0.533E-02    3.48       1.0  T
   5    -11.7496553 -0.365021E-05  0.289E-02    3.48       1.1  T
   6    -11.7496600 -0.470517E-05  0.707E-03    3.48       4.5  T
   7    -11.7496601 -0.883189E-07  0.265E-03    3.48      12.0  T
   8    -11.7496601 -0.100615E-07  0.115E-03    3.48      27.6  T
   9    -11.7496601 -0.417369E-08  0.184E-04    3.48     171.4  T
  10    -11.7496601 -0.131147E-09  0.579E-05    3.48     546.1  T
     SCC iter.                  ...        0 min,  0.001 sec
     gradient                   ...        0 min,  0.000 sec
 * total energy  :   -11.5311452 Eh     change       -0.5041837E-01 Eh
   gradient norm :     0.0894832 Eh/a0  converged?    E=F G=F D=F
   step length   :     1.5156612 a0

........................................................................
.............................. CYCLE    3 ..............................
........................................................................

 iter      E             dE          RMSdq      gap      omega  full diag
   1    -11.7421751 -0.117422E+02  0.716E-01    3.62       0.0  T
   2    -11.7422624 -0.872316E-04  0.436E-01    3.61       1.0  T
   3    -11.7418386  0.423787E-03  0.260E-01    3.61       1.0  T
   4    -11.7423244 -0.485846E-03  0.353E-02    3.61       1.0  T
   5    -11.7423267 -0.231108E-05  0.132E-02    3.61       2.4  T
   6    -11.7423274 -0.693908E-06  0.105E-02    3.61       3.0  T
   7    -11.7423279 -0.486095E-06  0.218E-03    3.61      14.5  T
   8    -11.7423279 -0.480950E-08  0.642E-04    3.61      49.3  T
   9    -11.7423279 -0.317433E-09  0.627E-05    3.61     504.4  T
     SCC iter.                  ...        0 min,  0.001 sec
     gradient                   ...        0 min,  0.000 sec
 * total energy  :   -11.5346104 Eh     change       -0.3465174E-02 Eh
   gradient norm :     0.0826108 Eh/a0  converged?    E=F G=F D=F
   step length   :     0.4870948 a0

........................................................................
.............................. CYCLE    4 ..............................
........................................................................

 iter      E             dE          RMSdq      gap      omega  full diag
   1    -11.7479245 -0.117479E+02  0.160E+00    3.48       0.0  T
   2    -11.7480052 -0.807176E-04  0.947E-01    3.46       1.0  T
   3    -11.7471636  0.841654E-03  0.354E-01    3.44       1.0  T
   4    -11.7480947 -0.931058E-03  0.263E-02    3.44       1.2  T
   5    -11.7480951 -0.454885E-06  0.105E-02    3.44       3.0  T
   6    -11.7480952 -0.117932E-06  0.801E-03    3.44       3.9  T
   7    -11.7480955 -0.301738E-06  0.133E-03    3.44      23.7  T
   8    -11.7480955 -0.140576E-08  0.566E-04    3.44      55.9  T
   9    -11.7480955 -0.323828E-09  0.898E-05    3.44     352.1  T
     SCC iter.                  ...        0 min,  0.001 sec
     gradient                   ...        0 min,  0.000 sec
 * total energy  :   -11.5275845 Eh     change        0.7025889E-02 Eh
   gradient norm :     0.0863428 Eh/a0  converged?    E=F G=F D=F
   step length   :     0.9536610 a0

........................................................................
.............................. CYCLE    5 ..............................
........................................................................

 iter      E             dE          RMSdq      gap      omega  full diag
   1    -11.7690830 -0.117691E+02  0.116E+00    3.49       0.0  T
   2    -11.7691283 -0.452901E-04  0.693E-01    3.51       1.0  T
   3    -11.7686325  0.495772E-03  0.261E-01    3.52       1.0  T
   4    -11.7691797 -0.547231E-03  0.201E-02    3.52       1.6  T
   5    -11.7691806 -0.906676E-06  0.156E-02    3.52       2.0  T
   6    -11.7691814 -0.730550E-06  0.562E-03    3.52       5.6  T
   7    -11.7691814 -0.763995E-07  0.198E-03    3.52      16.0  T
   8    -11.7691815 -0.783102E-08  0.467E-04    3.52      67.7  T
   9    -11.7691815 -0.133850E-09  0.756E-05    3.52     418.5  T
     SCC iter.                  ...        0 min,  0.000 sec
     gradient                   ...        0 min,  0.000 sec
 * total energy  :   -11.5441404 Eh     change       -0.1655588E-01 Eh
   gradient norm :     0.0478034 Eh/a0  converged?    E=F G=F D=F
   step length   :     0.7483374 a0

........................................................................
.............................. CYCLE    6 ..............................
........................................................................

 iter      E             dE          RMSdq      gap      omega  full diag
   1    -11.7675206 -0.117675E+02  0.857E-01    3.73       0.0  T
   2    -11.7675377 -0.170816E-04  0.505E-01    3.74       1.0  T
   3    -11.7670903  0.447390E-03  0.262E-01    3.74       1.0  T
   4    -11.7675945 -0.504214E-03  0.137E-02    3.74       2.3  T
   5    -11.7675945  0.508591E-07  0.111E-02    3.74       2.9  T
   6    -11.7675950 -0.489187E-06  0.231E-03    3.74      13.7  T
   7    -11.7675950 -0.106381E-07  0.829E-04    3.74      38.1  T
   8    -11.7675950 -0.842563E-09  0.174E-04    3.74     181.9  T
     SCC iter.                  ...        0 min,  0.000 sec
     gradient                   ...        0 min,  0.000 sec
 * total energy  :   -11.5417406 Eh     change        0.2399822E-02 Eh
   gradient norm :     0.0550597 Eh/a0  converged?    E=F G=F D=F
   step length   :     0.5967014 a0

........................................................................
.............................. CYCLE    7 ..............................
........................................................................

 iter      E             dE          RMSdq      gap      omega  full diag
   1    -11.7697094 -0.117697E+02  0.624E-01    3.71       0.0  T
   2    -11.7697181 -0.875566E-05  0.358E-01    3.70       1.0  T
   3    -11.7694710  0.247145E-03  0.218E-01    3.70       1.0  T
   4    -11.7697486 -0.277624E-03  0.170E-02    3.70       1.9  T
   5    -11.7697490 -0.383375E-06  0.864E-03    3.70       3.7  T
   6    -11.7697491 -0.129037E-06  0.331E-03    3.70       9.6  T
   7    -11.7697492 -0.716307E-07  0.931E-04    3.70      34.0  T
   8    -11.7697492 -0.191446E-08  0.242E-04    3.70     130.8  T
     SCC iter.                  ...        0 min,  0.000 sec
     gradient                   ...        0 min,  0.000 sec
 * total energy  :   -11.5463620 Eh     change       -0.4621366E-02 Eh
   gradient norm :     0.0353377 Eh/a0  converged?    E=F G=F D=F
   step length   :     0.4089785 a0

........................................................................
.............................. CYCLE    8 ..............................
........................................................................

 iter      E             dE          RMSdq      gap      omega  full diag
   1    -11.7792184 -0.117792E+02  0.725E-01    3.44       0.0  T
   2    -11.7792597 -0.412679E-04  0.421E-01    3.44       1.0  T
   3    -11.7788346  0.425062E-03  0.286E-01    3.44       1.0  T
   4    -11.7793235 -0.488912E-03  0.374E-02    3.44       1.0  T
   5    -11.7793245 -0.910184E-06  0.247E-02    3.44       1.3  T
   6    -11.7793269 -0.245481E-05  0.885E-03    3.44       3.6  T
   7    -11.7793272 -0.276011E-06  0.192E-03    3.44      16.5  T
   8    -11.7793272 -0.567192E-08  0.575E-04    3.44      55.0  T
   9    -11.7793272 -0.895781E-10  0.103E-04    3.44     307.5  T
     SCC iter.                  ...        0 min,  0.000 sec
     gradient                   ...        0 min,  0.000 sec
 * total energy  :   -11.5377224 Eh     change        0.8639594E-02 Eh
   gradient norm :     0.1006883 Eh/a0  converged?    E=F G=F D=F
   step length   :     0.4834067 a0

........................................................................
.............................. CYCLE    9 ..............................
........................................................................

 iter      E             dE          RMSdq      gap      omega  full diag
   1    -11.7745810 -0.117746E+02  0.645E-01    3.67       0.0  T
   2    -11.7746122 -0.311990E-04  0.377E-01    3.67       1.0  T
   3    -11.7743461  0.266171E-03  0.221E-01    3.67       1.0  T
   4    -11.7746489 -0.302813E-03  0.236E-02    3.67       1.3  T
   5    -11.7746489 -0.242734E-07  0.145E-02    3.67       2.2  T
   6    -11.7746496 -0.691120E-06  0.748E-03    3.67       4.2  T
   7    -11.7746498 -0.212021E-06  0.152E-03    3.67      20.8  T
   8    -11.7746498 -0.378923E-08  0.432E-04    3.67      73.2  T
   9    -11.7746498 -0.103933E-09  0.382E-05    3.67     826.8  T
     SCC iter.                  ...        0 min,  0.000 sec
     gradient                   ...        0 min,  0.000 sec
 * total energy  :   -11.5480104 Eh     change       -0.1028806E-01 Eh
   gradient norm :     0.0315741 Eh/a0  converged?    E=F G=F D=F
   step length   :     0.4523782 a0

........................................................................
.............................. CYCLE   10 ..............................
........................................................................

 iter      E             dE          RMSdq      gap      omega  full diag
   1    -11.7784628 -0.117785E+02  0.298E-01    3.74       0.0  T
   2    -11.7784648 -0.202187E-05  0.178E-01    3.74       1.0  T
   3    -11.7784489  0.159485E-04  0.445E-02    3.75       1.0  T
   4    -11.7784669 -0.180650E-04  0.562E-03    3.75       5.6  T
   5    -11.7784670 -0.217050E-07  0.180E-03    3.75      17.5  T
   6    -11.7784670 -0.369963E-08  0.136E-03    3.75      23.2  T
   7    -11.7784670 -0.883255E-08  0.214E-04    3.75     148.1  T
   8    -11.7784670 -0.870717E-10  0.891E-05    3.75     355.1  T
     SCC iter.                  ...        0 min,  0.000 sec
     gradient                   ...        0 min,  0.000 sec
 * total energy  :   -11.5481944 Eh     change       -0.1839377E-03 Eh
   gradient norm :     0.0174465 Eh/a0  converged?    E=F G=F D=F
   step length   :     0.2247620 a0

........................................................................
.............................. CYCLE   11 ..............................
........................................................................

 iter      E             dE          RMSdq      gap      omega  full diag
   1    -11.7787349 -0.117787E+02  0.163E-01    3.73       0.0  T
   2    -11.7787355 -0.581298E-06  0.969E-02    3.72       1.0  T
   3    -11.7787326  0.289958E-05  0.197E-02    3.72       1.6  T
   4    -11.7787360 -0.340785E-05  0.317E-03    3.72      10.0  T
   5    -11.7787360 -0.319357E-09  0.727E-04    3.72      43.5  T
   6    -11.7787360 -0.257962E-08  0.527E-04    3.72      60.0  T
     SCC iter.                  ...        0 min,  0.000 sec
     gradient                   ...        0 min,  0.000 sec
 * total energy  :   -11.5489039 Eh     change       -0.7095368E-03 Eh
   gradient norm :     0.0080659 Eh/a0  converged?    E=F G=F D=F
   step length   :     0.1202626 a0

........................................................................
.............................. CYCLE   12 ..............................
........................................................................

 iter      E             dE          RMSdq      gap      omega  full diag
   1    -11.7778802 -0.117779E+02  0.185E-01    3.72       0.0  T
   2    -11.7778807 -0.492085E-06  0.110E-01    3.72       1.0  T
   3    -11.7778762  0.444513E-05  0.247E-02    3.72       1.3  T
   4    -11.7778812 -0.497491E-05  0.188E-03    3.72      16.8  T
   5    -11.7778812  0.120923E-08  0.141E-03    3.72      22.4  T
   6    -11.7778812 -0.892176E-08  0.463E-04    3.72      68.3  T
   7    -11.7778812 -0.208342E-09  0.951E-05    3.72     332.6  T
     SCC iter.                  ...        0 min,  0.000 sec
     gradient                   ...        0 min,  0.000 sec
 * total energy  :   -11.5491304 Eh     change       -0.2265067E-03 Eh
   gradient norm :     0.0105455 Eh/a0  converged?    E=F G=F D=F
   step length   :     0.1366148 a0

........................................................................
.............................. CYCLE   13 ..............................
........................................................................

 iter      E             dE          RMSdq      gap      omega  full diag
   1    -11.7814697 -0.117815E+02  0.117E-01    3.75       0.0  T
   2    -11.7814702 -0.510274E-06  0.690E-02    3.75       1.0  T
   3    -11.7814670  0.321186E-05  0.234E-02    3.75       1.3  T
   4    -11.7814706 -0.360500E-05  0.222E-03    3.75      14.2  T
   5    -11.7814706 -0.250228E-08  0.140E-03    3.75      22.6  T
   6    -11.7814706 -0.234272E-08  0.356E-04    3.75      88.7  T
   7    -11.7814706 -0.119851E-10  0.187E-04    3.75     169.3  T
     SCC iter.                  ...        0 min,  0.000 sec
     gradient                   ...        0 min,  0.000 sec
 * total energy  :   -11.5492436 Eh     change       -0.1132203E-03 Eh
   gradient norm :     0.0066746 Eh/a0  converged?    E=F G=F D=F
   step length   :     0.0887008 a0

........................................................................
.............................. CYCLE   14 ..............................
........................................................................

 iter      E             dE          RMSdq      gap      omega  full diag
   1    -11.7807064 -0.117807E+02  0.413E-02    3.75       0.0  T
   2    -11.7807066 -0.134434E-06  0.245E-02    3.75       1.3  T
   3    -11.7807054  0.117682E-05  0.146E-02    3.75       2.2  T
   4    -11.7807067 -0.134160E-05  0.131E-03    3.75      24.2  T
   5    -11.7807067 -0.136585E-08  0.888E-04    3.75      35.6  T
   6    -11.7807067 -0.925816E-09  0.441E-04    3.75      71.6  T
     SCC iter.                  ...        0 min,  0.000 sec
     gradient                   ...        0 min,  0.000 sec
 * total energy  :   -11.5492834 Eh     change       -0.3979020E-04 Eh
   gradient norm :     0.0012616 Eh/a0  converged?    E=F G=F D=F
   step length   :     0.0299381 a0

........................................................................
.............................. CYCLE   15 ..............................
........................................................................

 iter      E             dE          RMSdq      gap      omega  full diag
   1    -11.7811493 -0.117811E+02  0.169E-02    3.75       0.0  T
   2    -11.7811493 -0.325978E-07  0.103E-02    3.76       3.1  T
   3    -11.7811492  0.978939E-07  0.369E-03    3.76       8.6  T
   4    -11.7811493 -0.107740E-06  0.787E-04    3.76      40.2  T
   5    -11.7811494 -0.278319E-08  0.237E-04    3.76     133.6  T
     SCC iter.                  ...        0 min,  0.000 sec
     gradient                   ...        0 min,  0.000 sec
 * total energy  :   -11.5492838 Eh     change       -0.4322072E-06 Eh
   gradient norm :     0.0018174 Eh/a0  converged?    E=T G=F D=F
   step length   :     0.0159126 a0

........................................................................
.............................. CYCLE   16 ..............................
........................................................................

 iter      E             dE          RMSdq      gap      omega  full diag
   1    -11.7809120 -0.117809E+02  0.115E-02    3.75       0.0  T
   2    -11.7809120 -0.731287E-08  0.695E-03    3.75       4.5  T
   3    -11.7809120  0.243991E-07  0.180E-03    3.75      17.6  T
   4    -11.7809120 -0.267173E-07  0.364E-04    3.75      86.8  T
   5    -11.7809120 -0.588086E-09  0.114E-04    3.75     276.7  T
     SCC iter.                  ...        0 min,  0.000 sec
     gradient                   ...        0 min,  0.000 sec
 * total energy  :   -11.5492867 Eh     change       -0.2880371E-05 Eh
   gradient norm :     0.0008511 Eh/a0  converged?    E=T G=T D=F
   step length   :     0.0072670 a0

   *** GEOMETRY OPTIMIZATION CONVERGED AFTER 16 CYCLES ***

------------------------------------------------------------------------
 total energy gain   :        -0.2015305 Eh     -126.4623 kcal/mol
 total RMSD          :         0.6702300 a0        0.3547 Å
 total power (kW/mol):       -33.0698915 (step)********** (real)
------------------------------------------------------------------------

 L-ANCopt (total)              0 d,  0 h,  0 min,  0.018 sec
 setup                          ...        0 min,  0.000 sec (  0.653%)
 model hessian                  ...        0 min,  0.000 sec (  1.766%)
 ANC generation                 ...        0 min,  0.000 sec (  0.424%)
 coordinate transformation      ...        0 min,  0.000 sec (  0.122%)
 Rational function              ...        0 min,  0.000 sec (  0.148%)
 singlepoint calculation        ...        0 min,  0.017 sec ( 94.596%)
 optimization log               ...        0 min,  0.000 sec (  1.337%)
 hessian update                 ...        0 min,  0.000 sec (  0.079%)

================
 final structure:
================
10
 xtb: 6.7.1 (unknown)
C            0.40977317679754        1.51101828297742       -0.01166705554229
C            0.35359144459129       -1.51494611726219       -0.07912038878948
C           -0.67354962517548        0.74260783246250        0.00696511719246
C           -0.69303720303976       -0.71059530053371        0.06838251830074
H            0.33797360607372        2.58463673621768       -0.05462000030524
H            1.40516625330794        1.10294890148487        0.02544212915524
H            1.34535431232527       -1.14259604356952       -0.26778743362776
H            0.25374018799571       -2.58545412900682       -0.01941577619643
H           -1.64966147114040        1.21137257941001       -0.01369612796298
H           -1.66923921384964       -1.14692843237386        0.24114370101706

 Bond Distances (Angstroems)
 ---------------------------
C1-C3=1.3283         C1-H5=1.0769         C1-H6=1.0764         C2-C4=1.3282         C2-H7=1.0760         C2-H8=1.0768         
C3-C1=1.3283         C3-C4=1.4546         C3-H9=1.0830         C4-C2=1.3282         C4-C3=1.4546         C4-H10=1.0831        
H5-C1=1.0769         H6-C1=1.0764         H7-C2=1.0760         H8-C2=1.0768         H9-C3=1.0830         H10-C4=1.0831        
 C  H  Rav=1.0787 sigma=0.0031  Rmin=1.0760  Rmax=1.0831     6
 C  C  Rav=1.3704 sigma=0.0596  Rmin=1.3282  Rmax=1.4546     3

 selected bond angles (degree)
 --------------------
H5-C1-C3=121.53                H6-C1-C3=122.30                H6-C1-H5=116.17                H7-C2-C4=122.43                
H8-C2-C4=121.52                H8-C2-H7=116.05                C4-C3-C1=126.12                H9-C3-C1=118.97                
H9-C3-C4=114.91                C3-C4-C2=126.14                H10-C4-C2=118.94               H10-C4-C3=114.91               

 selected dihedral angles (degree)
 ---------------------------------
C4-C3-C1-H5=180.22            C4-C3-C1-H6=359.56            H9-C3-C1-H5=359.51            H9-C3-C1-H6=178.85            
C3-C4-C2-H7=359.78            C3-C4-C2-H8=180.01            H10-C4-C2-H7=179.05           H10-C4-C2-H8=359.28           
C2-C4-C3-C1=349.53            C2-C4-C3-H9=170.22            H10-C4-C3-C1=170.23           H10-C4-C3-H9=350.92           

 CMA Distance (Angstroems)
 ---------------------------
R(CMA):  1.9732
           -------------------------------------------------
          |                Final Singlepoint                |
           -------------------------------------------------

          ...................................................
          :                      SETUP                      :
          :.................................................:
          :  # basis functions                  22          :
          :  # atomic orbitals                  22          :
          :  # shells                           14          :
          :  # electrons                        22          :
          :  max. iterations                   250          :
          :  Hamiltonian                  GFN2-xTB          :
          :  restarted?                      false          :
          :  GBSA solvation                  false          :
          :  PC potential                    false          :
          :  electronic temp.          300.0000000     K    :
          :  accuracy                    1.0000000          :
          :  -> integral cutoff          0.2500000E+02      :
          :  -> integral neglect         0.1000000E-07      :
          :  -> SCF convergence          0.1000000E-05 Eh   :
          :  -> wf. convergence          0.1000000E-03 e    :
          :  Broyden damping             0.4000000          :
          :  net charge                          0          :
          :  unpaired electrons                  0          :
          ...................................................

 iter      E             dE          RMSdq      gap      omega  full diag
   1    -11.7809120 -0.117809E+02  0.835E-05    3.75       0.0  T
   2    -11.7809120 -0.737188E-12  0.579E-05    3.75     545.9  T
   3    -11.7809120 -0.271996E-10  0.265E-05    3.75    1193.1  T

   *** convergence criteria satisfied after 3 iterations ***

         #    Occupation            Energy/Eh            Energy/eV
      -------------------------------------------------------------
         1        2.0000           -0.6238641             -16.9762
       ...           ...                  ...                  ...
         5        2.0000           -0.5192933             -14.1307
         6        2.0000           -0.4828878             -13.1400
         7        2.0000           -0.4742802             -12.9058
         8        2.0000           -0.4476628             -12.1815
         9        2.0000           -0.4315738             -11.7437
        10        2.0000           -0.4288545             -11.6697
        11        2.0000           -0.3863179             -10.5122 (HOMO)
        12                         -0.2483872              -6.7590 (LUMO)
        13                         -0.1420216              -3.8646
        14                          0.1206711               3.2836
        15                          0.1236228               3.3639
        16                          0.1476639               4.0181
       ...                                ...                  ...
        22                          0.6824463              18.5703
      -------------------------------------------------------------
                  HL-Gap            0.1379307 Eh            3.7533 eV
             Fermi-level           -0.3173525 Eh           -8.6356 eV

 SCC (total)                   0 d,  0 h,  0 min,  0.001 sec
 SCC setup                      ...        0 min,  0.000 sec (  1.857%)
 Dispersion                     ...        0 min,  0.000 sec (  0.943%)
 classical contributions        ...        0 min,  0.000 sec (  0.444%)
 integral evaluation            ...        0 min,  0.000 sec ( 18.935%)
 iterations                     ...        0 min,  0.000 sec ( 22.456%)
 molecular gradient             ...        0 min,  0.000 sec ( 52.204%)
 printout                       ...        0 min,  0.000 sec (  2.800%)

         :::::::::::::::::::::::::::::::::::::::::::::::::::::
         ::                     SUMMARY                     ::
         :::::::::::::::::::::::::::::::::::::::::::::::::::::
         :: total energy             -11.549286725068 Eh    ::
         :: gradient norm              0.000854457582 Eh/a0 ::
         :: HOMO-LUMO gap              3.753284710221 eV    ::
         ::.................................................::
         :: SCC energy               -11.780910419265 Eh    ::
         :: -> isotropic ES            0.001631500960 Eh    ::
         :: -> anisotropic ES          0.002939165696 Eh    ::
         :: -> anisotropic XC          0.011706652640 Eh    ::
         :: -> dispersion             -0.004563240261 Eh    ::
         :: repulsion energy           0.231623694197 Eh    ::
         :: add. restraining           0.000000000000 Eh    ::
         :: total charge               0.000000000000 e     ::
         :::::::::::::::::::::::::::::::::::::::::::::::::::::

           ------------------------------------------------- 
          |                Numerical Hessian                |
           ------------------------------------------------- 
step length          :   0.00500
SCC accuracy         :   0.30000
Hessian scale factor :   1.00000
frozen atoms in %    :   0.00000    0
RMS gradient         :   0.00085
estimated CPU  time      0.00 min
estimated wall time      0.00 min

writing file <hessian>.

 projected vibrational frequencies (cm⁻¹)
eigval :       -0.00    -0.00     0.00     0.00     0.00     0.00
eigval :      -15.15   299.89   469.50   552.70   733.32   882.12
eigval :      894.56   903.63  1010.05  1019.85  1067.23  1074.64
eigval :     1285.99  1333.94  1390.59  1429.48  1650.44  1689.49
eigval :     3044.79  3055.49  3107.31  3110.27  3129.52  3135.47
           -------------------------------------------------
          |                Property Printout                |
           -------------------------------------------------

    * Orbital Energies and Occupations

         #    Occupation            Energy/Eh            Energy/eV
      -------------------------------------------------------------
         1        2.0000           -0.6238642             -16.9762
         2        2.0000           -0.6026769             -16.3997
         3        2.0000           -0.5690621             -15.4850
         4        2.0000           -0.5282607             -14.3747
         5        2.0000           -0.5192933             -14.1307
         6        2.0000           -0.4828878             -13.1400
         7        2.0000           -0.4742802             -12.9058
         8        2.0000           -0.4476629             -12.1815
         9        2.0000           -0.4315738             -11.7437
        10        2.0000           -0.4288545             -11.6697
        11        2.0000           -0.3863178             -10.5122 (HOMO)
        12                         -0.2483872              -6.7590 (LUMO)
        13                         -0.1420216              -3.8646
        14                          0.1206711               3.2836
        15                          0.1236228               3.3639
        16                          0.1476639               4.0181
        17                          0.1847571               5.0275
        18                          0.2543646               6.9216
        19                          0.3489569               9.4956
        20                          0.4986969              13.5702
        21                          0.5162788              14.0487
        22                          0.6824463              18.5703
      -------------------------------------------------------------
                  HL-Gap            0.1379307 Eh            3.7533 eV
             Fermi-level           -0.3173525 Eh           -8.6356 eV

     #   Z          covCN         q      C6AA      α(0)
     1   6 C        2.838    -0.085    30.108     8.992
     2   6 C        2.838    -0.085    30.108     8.992
     3   6 C        2.890    -0.025    28.636     8.773
     4   6 C        2.890    -0.025    28.635     8.773
     5   1 H        0.926     0.037     2.496     2.470
     6   1 H        0.926     0.042     2.424     2.435
     7   1 H        0.926     0.042     2.424     2.435
     8   1 H        0.926     0.036     2.497     2.471
     9   1 H        0.925     0.032     2.563     2.504
    10   1 H        0.925     0.032     2.563     2.504

 Mol. C6AA /au·bohr⁶  :        969.922021
 Mol. C8AA /au·bohr⁸  :      22345.953639
 Mol. α(0) /au        :         50.348914


Wiberg/Mayer (AO) data.
largest (>0.10) Wiberg bond orders for each atom

 ---------------------------------------------------------------------------
     #   Z sym  total        # sym  WBO       # sym  WBO       # sym  WBO
 ---------------------------------------------------------------------------
     1   6 C    3.993 --     3 C    1.897     5 H    0.979     6 H    0.974
                             2 C    0.131
     2   6 C    3.993 --     4 C    1.897     8 H    0.979     7 H    0.974
                             1 C    0.131
     3   6 C    3.992 --     1 C    1.897     4 C    1.105     9 H    0.968
     4   6 C    3.992 --     2 C    1.897     3 C    1.105    10 H    0.968
     5   1 H    0.999 --     1 C    0.979
     6   1 H    0.998 --     1 C    0.974
     7   1 H    0.998 --     2 C    0.974
     8   1 H    0.999 --     2 C    0.979
     9   1 H    0.999 --     3 C    0.968
    10   1 H    0.999 --     4 C    0.968
 ---------------------------------------------------------------------------

Topologies differ in total number of bonds
Writing topology from bond orders to xtbtopo.mol

molecular dipole:
                 x           y           z       tot (Debye)
 q only:        0.004       0.000       0.000
   full:       -0.004       0.000       0.001       0.011
molecular quadrupole (traceless):
                xx          xy          yy          xz          yz          zz
 q only:        0.553      -0.005       0.427      -0.120      -0.033      -0.980
  q+dip:        2.461      -0.034       1.570      -0.507      -0.175      -4.031
   full:        1.294      -0.019       0.837      -0.267      -0.100      -2.132

           -------------------------------------------------
          |                Geometry Summary                 |
           -------------------------------------------------

      molecular mass/u    :       54.0905881
   center of mass at/Å    :       -0.1335098       0.0066837      -0.0050851
  moments of inertia/u·Å² :        0.2356136E+02   0.8663872E+02   0.1099544E+03
rotational constants/cm⁻¹ :        0.7154779E+00   0.1945739E+00   0.1533148E+00

 * 8 selected distances

     #   Z          #   Z                                           value/Å
     1   6 C        3   6 C                                       1.3283036 (max)
Molecule has the following symmetry elements: (C2) 
It seems to be the C2 point group
     2   6 C        4   6 C                                       1.3282203
     1   6 C        5   1 H                                       1.0768737
     1   6 C        6   1 H                                       1.0764317
     2   6 C        7   1 H                                       1.0760268 (min)
     2   6 C        8   1 H                                       1.0768113
     3   6 C        9   1 H                                       1.0830336
     4   6 C       10   1 H                                       1.0831452

 * 2 distinct bonds (by element types)

   Z      Z             #   av. dist./Å        max./Å        min./Å
   1 H    6 C           6     1.0787204     1.0831452     1.0760268
   6 C    6 C           2     1.3282619     1.3283036     1.3282203

           -------------------------------------------------
          |               Frequency Printout                |
           -------------------------------------------------
 projected vibrational frequencies (cm⁻¹)
eigval :       -0.00    -0.00     0.00     0.00     0.00     0.00
eigval :      -15.15   299.89   469.50   552.70   733.32   882.12
eigval :      894.56   903.63  1010.05  1019.85  1067.23  1074.64
eigval :     1285.99  1333.94  1390.59  1429.48  1650.44  1689.49
eigval :     3044.79  3055.49  3107.31  3110.27  3129.52  3135.47
 reduced masses (amu)
   1:  8.86   2: 10.42   3:  9.55   4: 10.10   5:  9.32   6: 10.29   7:  4.91   8:  8.45
   9:  3.25  10:  7.07  11:  6.86  12:  3.55  13:  4.05  14:  5.86  15:  1.82  16:  2.10
  17:  5.64  18:  5.97  19:  2.68  20:  3.48  21:  2.20  22:  2.88  23: 11.23  24: 10.87
  25:  1.77  26:  1.84  27:  1.52  28:  1.54  29:  2.10  30:  2.07
 IR intensities (km·mol⁻¹)
   1:  0.00   2:  0.02   3:  0.00   4:  0.00   5:  0.01   6:  0.00   7:  0.09   8:  0.10
   9:  2.17  10:  0.13  11:  0.00  12:  0.25  13: 24.32  14:  0.97  15: 28.30  16:  0.09
  17:  5.42  18:  0.31  19:  1.53  20:  0.32  21:  0.24  22:  0.00  23:  0.41  24:  0.60
  25: 14.96  26: 61.55  27: 15.32  28: 10.34  29: 47.34  30: 47.00
 Raman intensities (Ä⁴*amu⁻¹)
   1:  0.00   2:  0.00   3:  0.00   4:  0.00   5:  0.00   6:  0.00   7:  0.00   8:  0.00
   9:  0.00  10:  0.00  11:  0.00  12:  0.00  13:  0.00  14:  0.00  15:  0.00  16:  0.00
  17:  0.00  18:  0.00  19:  0.00  20:  0.00  21:  0.00  22:  0.00  23:  0.00  24:  0.00
  25:  0.00  26:  0.00  27:  0.00  28:  0.00  29:  0.00  30:  0.00
 output can be read by thermo (or use thermo option).
 writing <g98.out> molden fake output.
 recommended (thermochemical) frequency scaling factor: 1.0
           -------------------------------------------------
          |             Thermodynamic Functions             |
           -------------------------------------------------

c2  symmetry found (for desy threshold:  0.10E+00) used in thermo
 inverting freq            1   15.147101767532680     

          ...................................................
          :                      SETUP                      :
          :.................................................:
          :  # frequencies                          24      :
          :  # imaginary freq.                       0      :
          :  linear?                             false      :
          :  only rotor calc.                    false      :
          :  symmetry                               c2      :
          :  rotational number                       2      :
          :  scaling factor                  1.0000000      :
          :  rotor cutoff                   50.0000000 cm⁻¹ :
          :  imag. cutoff                  -20.0000000 cm⁻¹ :
          :.................................................:

    mode    ω/cm⁻¹     T·S(HO)/kcal·mol⁻¹    T·S(FR)/kcal·mol⁻¹   T·S(vib)
   ------------------------------------------------------------------------
       1     15.15    -2.14255 (  0.84%)    -1.40587 ( 99.16%)    -1.41202
       2    299.89    -0.42262 ( 99.92%)    -0.52563 (  0.08%)    -0.42270
   ------------------------------------------------------------------------
Note: The following floating-point exceptions are signalling: IEEE_UNDERFLOW_FLAG
normal termination of xtb

   temp. (K)  partition function   enthalpy   heat capacity  entropy
                                   cal/mol     cal/K/mol   cal/K/mol   J/K/mol
 298.15  VIB   24.7                 1379.505      9.330      8.546
         ROT  0.181E+05              888.752      2.981     22.463
         INT  0.446E+06             2268.257     12.311     31.009
         TR   0.385E+27             1481.254      4.968     37.869
         TOT                        3749.5114    17.2793    68.8780   288.1858

       T/K    H(0)-H(T)+PV         H(T)/Eh          T*S/Eh         G(T)/Eh
   ------------------------------------------------------------------------
    298.15    0.597523E-02    0.886395E-01    0.327262E-01    0.559133E-01
   ------------------------------------------------------------------------

         :::::::::::::::::::::::::::::::::::::::::::::::::::::
         ::                  THERMODYNAMIC                  ::
         :::::::::::::::::::::::::::::::::::::::::::::::::::::
         :: total free energy         -11.493373426533 Eh   ::
         ::.................................................::
         :: total energy              -11.549286725069 Eh   ::
         :: zero point energy           0.082664255085 Eh   ::
         :: G(RRHO) w/o ZPVE           -0.026750956549 Eh   ::
         :: G(RRHO) contrib.            0.055913298536 Eh   ::
         :::::::::::::::::::::::::::::::::::::::::::::::::::::
imag cut-off (cm-1) :    5.00
 found            1  significant imaginary frequency
 writing imag mode distorted coords to xtbhess.xyz
 for further optimization.

optimized geometry written to: xtbopt.xyz


           -------------------------------------------------
          | TOTAL ENERGY              -11.549286725069 Eh   |
          | TOTAL ENTHALPY            -11.460647243229 Eh   |
          | TOTAL FREE ENERGY         -11.493373426533 Eh   |
          | GRADIENT NORM               0.000854480642 Eh/α |
          | HOMO-LUMO GAP               3.753284688409 eV   |
           -------------------------------------------------

------------------------------------------------------------------------
 * finished run on 2026/09/04 at 18:32:21.113     
------------------------------------------------------------------------
 total:
 * wall-time:     0 d,  0 h,  0 min,  0.083 sec
 *  cpu-time:     0 d,  0 h,  0 min,  0.083 sec
 * ratio c/w:     0.999 speedup
 SCF:
 * wall-time:     0 d,  0 h,  0 min,  0.001 sec
 *  cpu-time:     0 d,  0 h,  0 min,  0.001 sec
 * ratio c/w:     0.999 speedup
 ANC optimizer:
 * wall-time:     0 d,  0 h,  0 min,  0.020 sec
 *  cpu-time:     0 d,  0 h,  0 min,  0.020 sec
 * ratio c/w:     0.999 speedup
 analytical hessian:
 * wall-time:     0 d,  0 h,  0 min,  0.059 sec
 *  cpu-time:     0 d,  0 h,  0 min,  0.059 sec
 * ratio c/w:     1.000 speedup

