10
 xtb: 6.7.1 (unknown)
C            0.41114012536545        1.51330799205872       -0.07157211219250
C            0.36415471345770       -1.51734297929929       -0.02034595812632
C           -0.67197302646295        0.74616970535621        0.10105594726067
C           -0.70621591919236       -0.71401107280846       -0.02455409817279
H            0.33522530256061        2.58688240436309       -0.02702543624218
H            1.40858855791347        1.10337019547037       -0.07972413029359
H            1.36485751309819       -1.14339060115640       -0.16384194754803
H            0.24651106837538       -2.58765540547818       -0.04682164195611
H           -1.64860847286103        1.21689640268636        0.08929947819698
H           -1.68437274974659       -1.15224729746330        0.13910572226442
