10
 energy: -11.549286725068 gnorm: 0.000854457582 xtb: 6.7.1 (unknown)
C            0.40978104772763        1.51101611702443       -0.01167112314484
C            0.35358323617121       -1.51494810672927       -0.07911897897609
C           -0.67354571256824        0.74261137130507        0.00696617222896
C           -0.69304068498936       -0.71059155243982        0.06838617767919
H            0.33798694851731        2.58463487122377       -0.05462569109737
H            1.40517211711036        1.10294158843920        0.02543529919053
H            1.34534739492977       -1.14260355518317       -0.26779013559189
H            0.25372658282625       -2.58545549143453       -0.01941214944791
H           -1.64965517619175        1.21138119309483       -0.01369248380203
H           -1.66924437736031       -1.14691927136955        0.24115152952703
