6
SMILES:[H]C(=O)N([H])[H] Energy:-34.990509eV
O       1.099438189076090      0.236113771608640     -0.000214895289597
N      -1.192437608941090      0.178848794041823     -0.000046246988749
C       0.044825576081849     -0.397725502198154     -0.000220195328330
H      -1.273109078817635      1.186817246306974      0.000495780374035
H      -2.034355699939494     -0.380117443688724     -0.000390027722457
H       0.015231353278505     -1.511901855887687      0.000301314655512
6
SMILES:[H]/N=C(\[H])O[H] Energy:-34.360126eV
O       0.916211227334579      0.179378625682775     -0.482931096263232
N      -1.281760817590150     -0.293049675521435      0.070642723391212
C      -0.073007414182535     -0.105437195371466      0.407194232293643
H      -1.929238564440601     -0.499938699685140      0.832776062823114
H       0.498493139120655      0.202462813237725     -1.362801584876831
H       0.360918317280735     -0.138533292748654      1.415264005530664
6
SMILES:[H]/N=C(/[H])O[H] Energy:-34.198166eV
O       0.747169261746742     -0.057541706683360     -0.727224405899268
N      -1.228843384322213      0.009326834524513      0.558689880884455
C      -0.022409093645648      0.333902080451545      0.347814361046218
H      -1.660096165224886     -0.597238616152289     -0.138762649918641
H       1.638597187387144      0.331848031139202     -0.653681840774413
H       0.527390713132098      0.984613574988845      1.044577049997156
