 Entering Gaussian System
 *********************************************
 Gaussian 98:
 frequency output generated by the xtb code
 *********************************************
                         Standard orientation:
 --------------------------------------------------------------------
  Center     Atomic     Atomic              Coordinates (Angstroms)
  Number     Number      Type              X           Y           Z
 --------------------------------------------------------------------
    1          8             0        1.076164    0.230624   -0.000176
    2          7             0       -1.182386    0.167764    0.000298
    3          6             0        0.045187   -0.386220    0.001315
    4          1             0       -1.259099    1.172667   -0.000606
    5          1             0       -2.022602   -0.381130    0.000135
    6          1             0        0.002332   -1.491689   -0.001052
 --------------------------------------------------------------------
     1 basis functions        1 primitive gaussians
     1 alpha electrons        1 beta electrons

 Harmonic frequencies (cm**-1), IR intensities (km*mol⁻¹),
 Raman scattering activities (A**4/amu), Raman depolarization ratios,
 reduced masses (AMU), force constants (mDyne/A) and normal coordinates:
                      1                      2                      3
                        a                      a                      a 
 Frequencies --   320.4114               533.8490               608.5596
 Red. masses --     3.3673                 9.4421                 4.0390
 Frc consts  --     0.0000                 0.0000                 0.0000
 IR Inten    --   240.4203                11.5811                57.2368
 Raman Activ --     0.0000                 0.0000                 0.0000
 Depolar     --     0.0000                 0.0000                 0.0000
 Atom AN      X      Y      Z        X      Y      Z        X      Y      Z
   1   8    -0.00   0.00   0.07     0.46  -0.29   0.00     0.00  -0.00  -0.23
   2   7     0.00  -0.00  -0.42    -0.35  -0.05   0.00     0.00  -0.00  -0.21
   3   6     0.00  -0.00   0.05    -0.02   0.46  -0.00     0.00   0.00   0.39
   4   1    -0.00   0.00   0.39    -0.48  -0.05   0.00    -0.00   0.00   0.73
   5   1    -0.00   0.00   0.81     0.10  -0.31   0.00     0.00  -0.00  -0.45
   6   1    -0.00   0.00  -0.07    -0.09   0.12  -0.00    -0.00   0.00   0.11
                      4                      5                      6
                        a                      a                      a 
 Frequencies --   957.5322              1019.7795              1241.5759
 Red. masses --     4.6551                 6.5109                 9.6779
 Frc consts  --     0.0000                 0.0000                 0.0000
 IR Inten    --     0.1322                20.9738                99.4311
 Raman Activ --     0.0000                 0.0000                 0.0000
 Depolar     --     0.0000                 0.0000                 0.0000
 Atom AN      X      Y      Z        X      Y      Z        X      Y      Z
   1   8    -0.00  -0.00  -0.15    -0.34  -0.01   0.00    -0.13  -0.14   0.00
   2   7     0.00   0.00  -0.06     0.44   0.27   0.00     0.38  -0.35   0.00
   3   6     0.00  -0.00   0.54    -0.04  -0.15  -0.00    -0.36   0.55  -0.00
   4   1    -0.00  -0.00  -0.24    -0.42   0.02  -0.00     0.43  -0.06   0.00
   5   1     0.00  -0.00  -0.01     0.44  -0.43   0.00     0.12  -0.11   0.00
   6   1    -0.00   0.00  -0.79    -0.18  -0.04   0.00    -0.20   0.12  -0.00
                      7                      8                      9
                        a                      a                      a 
 Frequencies --  1361.7409              1462.6829              1794.3246
 Red. masses --     2.4582                 4.4979                13.1986
 Frc consts  --     0.0000                 0.0000                 0.0000
 IR Inten    --     1.6439                76.3963               576.4987
 Raman Activ --     0.0000                 0.0000                 0.0000
 Depolar     --     0.0000                 0.0000                 0.0000
 Atom AN      X      Y      Z        X      Y      Z        X      Y      Z
   1   8    -0.09  -0.18  -0.00    -0.17  -0.15   0.00    -0.50  -0.30   0.00
   2   7    -0.07   0.17  -0.00     0.38  -0.16   0.00    -0.16   0.03  -0.00
   3   6    -0.17   0.08   0.00    -0.07   0.20  -0.00     0.73   0.29  -0.00
   4   1     0.17   0.05   0.00    -0.55  -0.08  -0.00     0.10   0.02   0.00
   5   1     0.18  -0.25   0.00    -0.27   0.50  -0.00    -0.01  -0.02  -0.00
   6   1     0.87  -0.01  -0.00     0.30   0.04  -0.00    -0.04   0.08  -0.00
                     10                     11                     12
                        a                      a                      a 
 Frequencies --  2774.4555              3458.2007              3544.0221
 Red. masses --     1.6698                 1.4814                 2.1444
 Frc consts  --     0.0000                 0.0000                 0.0000
 IR Inten    --   147.8670                11.9289                 8.2517
 Raman Activ --     0.0000                 0.0000                 0.0000
 Depolar     --     0.0000                 0.0000                 0.0000
 Atom AN      X      Y      Z        X      Y      Z        X      Y      Z
   1   8    -0.01  -0.02   0.00     0.00   0.00  -0.00     0.00   0.00  -0.00
   2   7     0.01  -0.01   0.00    -0.12   0.15  -0.00    -0.17  -0.24   0.00
   3   6    -0.01  -0.24  -0.00    -0.00   0.01   0.00    -0.00  -0.01   0.00
   4   1     0.01  -0.02  -0.00     0.06  -0.85   0.00    -0.05   0.46  -0.00
   5   1     0.00  -0.00   0.00     0.39   0.28   0.00     0.70   0.46   0.00
   6   1     0.02   0.97   0.00    -0.00  -0.01  -0.00     0.00   0.00   0.00
