6
 energy: -10.644269412781 gnorm: 0.000633786974 xtb: 6.7.1 (unknown)
O            1.07616386542437        0.23062442560328       -0.00017612626924
N           -1.18238615024777        0.16776438498375        0.00029754192963
C            0.04518697439735       -0.38622017450799        0.00131530343620
H           -1.25909848803253        1.17266679110981       -0.00060646400008
H           -2.02260223670561       -0.38112951716809        0.00013465999175
H            0.00233236141642       -1.49168837041943       -0.00105204244377
