 Entering Gaussian System
 *********************************************
 Gaussian 98:
 frequency output generated by the xtb code
 *********************************************
                         Standard orientation:
 --------------------------------------------------------------------
  Center     Atomic     Atomic              Coordinates (Angstroms)
  Number     Number      Type              X           Y           Z
 --------------------------------------------------------------------
    1          6             0       -0.514028   -0.596509   -1.103705
    2          6             0       -1.092619   -0.867193    0.225970
    3          6             0        0.309633   -1.393347   -0.120294
    4          6             0        1.211310   -0.587283    0.723935
    5          6             0       -0.909867    0.554940   -0.205526
    6          6             0        1.333228    0.662604    0.154124
    7          6             0        0.161244    1.509223    0.452424
    8          1             0       -0.809893   -0.825436   -2.107024
    9          1             0       -1.930796   -1.389701    0.634600
   10          1             0        0.405913   -2.463050   -0.277702
   11          1             0        1.057691   -0.673981    1.793454
   12          1             0       -1.815449    1.081412   -0.491008
   13          1             0        1.571869    0.661524   -0.909856
   14          1             0        0.149936    2.485060   -0.034249
   15          1             0       -0.061418    1.615856    1.513199
 --------------------------------------------------------------------
     1 basis functions        1 primitive gaussians
     1 alpha electrons        1 beta electrons

 Harmonic frequencies (cm**-1), IR intensities (km*mol⁻¹),
 Raman scattering activities (A**4/amu), Raman depolarization ratios,
 reduced masses (AMU), force constants (mDyne/A) and normal coordinates:
                      1                      2                      3
                        a                      a                      a 
 Frequencies --   310.2866               412.6257               430.8589
 Red. masses --     7.5835                 8.9525                 7.5223
 Frc consts  --     0.0000                 0.0000                 0.0000
 IR Inten    --     1.4754                10.4725                 4.7616
 Raman Activ --     0.0000                 0.0000                 0.0000
 Depolar     --     0.0000                 0.0000                 0.0000
 Atom AN      X      Y      Z        X      Y      Z        X      Y      Z
   1   6     0.15  -0.17   0.01    -0.23  -0.25  -0.07    -0.20  -0.14  -0.05
   2   6    -0.19   0.18  -0.08     0.21   0.28   0.28     0.01  -0.13   0.04
   3   6    -0.12  -0.03   0.29     0.05  -0.00  -0.23    -0.06  -0.02  -0.09
   4   6     0.20   0.07  -0.19     0.06  -0.14  -0.11    -0.37   0.30  -0.01
   5   6     0.07   0.05  -0.21     0.10   0.06  -0.37     0.10  -0.10  -0.02
   6   6    -0.05   0.08  -0.26     0.01   0.09   0.37     0.39   0.20  -0.05
   7   6    -0.07  -0.17   0.36    -0.14   0.01   0.05     0.15  -0.16   0.09
   8   1     0.09  -0.07  -0.01    -0.21  -0.18   0.05    -0.09  -0.04  -0.00
   9   1    -0.08   0.08  -0.03     0.10   0.13   0.22     0.01  -0.01   0.05
  10   1    -0.08  -0.03   0.19    -0.04  -0.02  -0.00     0.06   0.00  -0.02
  11   1     0.16   0.07  -0.03     0.05  -0.19  -0.04    -0.40   0.26  -0.02
  12   1     0.08   0.05  -0.17     0.02   0.01  -0.10     0.03  -0.01   0.03
  13   1    -0.10   0.08  -0.09     0.03   0.09   0.11     0.28   0.13   0.03
  14   1    -0.08   0.07   0.33     0.03   0.03   0.07    -0.03   0.02   0.15
  15   1     0.01  -0.31   0.14    -0.20  -0.05  -0.01     0.06  -0.19   0.05
                      4                      5                      6
                        a                      a                      a 
 Frequencies --   536.6232               562.3639               659.5381
 Red. masses --    10.9542                 9.1472                10.3268
 Frc consts  --     0.0000                 0.0000                 0.0000
 IR Inten    --     1.3251                 2.6083                 8.9360
 Raman Activ --     0.0000                 0.0000                 0.0000
 Depolar     --     0.0000                 0.0000                 0.0000
 Atom AN      X      Y      Z        X      Y      Z        X      Y      Z
   1   6     0.22  -0.09   0.05     0.04  -0.14   0.05     0.43   0.34   0.13
   2   6     0.22   0.00   0.08    -0.31  -0.13  -0.10     0.19   0.19   0.34
   3   6     0.01  -0.40  -0.10    -0.21  -0.18   0.07    -0.15  -0.15   0.00
   4   6    -0.41   0.05  -0.16     0.08  -0.01  -0.38    -0.09  -0.08  -0.19
   5   6     0.33   0.05   0.10     0.09  -0.13   0.15    -0.11   0.01   0.02
   6   6    -0.34  -0.03  -0.13     0.29   0.34   0.29     0.14   0.02  -0.03
   7   6     0.02   0.37   0.17     0.00   0.19  -0.01    -0.29  -0.30  -0.19
   8   1    -0.01   0.03   0.02     0.05   0.03  -0.01    -0.03   0.04   0.10
   9   1     0.02   0.07   0.01    -0.14  -0.02  -0.10    -0.07   0.03  -0.18
  10   1    -0.01  -0.12   0.00    -0.07  -0.06   0.09    -0.11  -0.04  -0.04
  11   1    -0.10   0.00  -0.05     0.17  -0.12  -0.09    -0.11   0.03  -0.06
  12   1     0.07  -0.05  -0.03     0.05  -0.01  -0.01    -0.05  -0.05  -0.04
  13   1    -0.16   0.02  -0.05     0.06   0.19   0.07     0.15   0.07   0.02
  14   1     0.02   0.10   0.04     0.01  -0.04  -0.19    -0.10  -0.08  -0.05
  15   1     0.03   0.11   0.05    -0.07   0.26  -0.04    -0.08  -0.07  -0.05
                      7                      8                      9
                        a                      a                      a 
 Frequencies --   673.5892               779.8251               795.6426
 Red. masses --     5.8972                 2.6471                 7.8550
 Frc consts  --     0.0000                 0.0000                 0.0000
 IR Inten    --   137.9502                 1.4965                17.0782
 Raman Activ --     0.0000                 0.0000                 0.0000
 Depolar     --     0.0000                 0.0000                 0.0000
 Atom AN      X      Y      Z        X      Y      Z        X      Y      Z
   1   6     0.08   0.01   0.02    -0.06   0.02  -0.07    -0.05   0.12  -0.45
   2   6    -0.01   0.03   0.01     0.12  -0.11   0.11     0.34   0.03  -0.23
   3   6     0.09   0.04  -0.07    -0.07  -0.00   0.05    -0.27  -0.06   0.26
   4   6    -0.50   0.18   0.05     0.08   0.05   0.07     0.05   0.05   0.06
   5   6    -0.07   0.00   0.00    -0.05  -0.01  -0.14     0.17  -0.08   0.14
   6   6     0.31   0.11   0.02    -0.02   0.01   0.02     0.05   0.04   0.04
   7   6     0.03  -0.14  -0.06     0.16   0.16   0.07    -0.12  -0.08  -0.01
   8   1     0.01  -0.05   0.02    -0.40  -0.30   0.16    -0.23  -0.03  -0.05
   9   1     0.04  -0.05   0.01    -0.25  -0.14  -0.67     0.11   0.14   0.12
  10   1     0.02   0.00   0.03     0.06   0.02  -0.05    -0.16  -0.05   0.26
  11   1     0.49  -0.32   0.05     0.06   0.00   0.02     0.06   0.04   0.03
  12   1    -0.02  -0.01  -0.00    -0.05  -0.02   0.06    -0.09  -0.08   0.37
  13   1    -0.33  -0.25  -0.11    -0.08  -0.04  -0.01    -0.11  -0.04  -0.02
  14   1    -0.03  -0.01   0.05     0.07   0.07   0.07    -0.08  -0.04  -0.04
  15   1     0.06  -0.10   0.00     0.01  -0.02   0.02    -0.06   0.02  -0.01
                     10                     11                     12
                        a                      a                      a 
 Frequencies --   814.7121               860.6566               906.5893
 Red. masses --     7.8305                 8.5275                 8.0833
 Frc consts  --     0.0000                 0.0000                 0.0000
 IR Inten    --     6.4755                 2.4829                 9.5955
 Raman Activ --     0.0000                 0.0000                 0.0000
 Depolar     --     0.0000                 0.0000                 0.0000
 Atom AN      X      Y      Z        X      Y      Z        X      Y      Z
   1   6     0.25  -0.14  -0.11    -0.01   0.24  -0.01     0.30   0.07  -0.15
   2   6     0.03   0.19  -0.13     0.19  -0.34   0.13    -0.10  -0.04   0.18
   3   6     0.12  -0.01  -0.02    -0.33  -0.12   0.22    -0.31   0.40  -0.06
   4   6    -0.10  -0.07  -0.13     0.01  -0.04  -0.06    -0.02   0.04  -0.03
   5   6    -0.58   0.04   0.12    -0.21  -0.01  -0.36     0.10  -0.36  -0.03
   6   6    -0.01  -0.02   0.01     0.05   0.04   0.07    -0.10  -0.01  -0.02
   7   6     0.23   0.11   0.11     0.19   0.25  -0.02     0.15  -0.08   0.20
   8   1    -0.04  -0.30   0.06     0.27   0.09  -0.09    -0.10  -0.22   0.07
   9   1     0.20  -0.15   0.10     0.13  -0.11   0.19     0.09  -0.07   0.21
  10   1    -0.15  -0.06   0.27     0.01   0.01  -0.19     0.01   0.14  -0.17
  11   1    -0.10  -0.02  -0.04     0.09  -0.02  -0.00    -0.07   0.05  -0.02
  12   1    -0.17  -0.00   0.04    -0.15  -0.10   0.02     0.15   0.00  -0.19
  13   1     0.15   0.09   0.04    -0.00   0.01   0.01    -0.19  -0.00  -0.04
  14   1     0.14   0.02   0.01     0.12   0.16   0.17     0.04  -0.13  -0.17
  15   1     0.12   0.06   0.04    -0.03  -0.13  -0.00    -0.01   0.18   0.02
                     13                     14                     15
                        a                      a                      a 
 Frequencies --   925.5028               941.9108               961.6502
 Red. masses --     4.6682                 3.1558                 4.8906
 Frc consts  --     0.0000                 0.0000                 0.0000
 IR Inten    --     3.0899                 0.9883                 4.4671
 Raman Activ --     0.0000                 0.0000                 0.0000
 Depolar     --     0.0000                 0.0000                 0.0000
 Atom AN      X      Y      Z        X      Y      Z        X      Y      Z
   1   6    -0.14  -0.22  -0.11     0.18  -0.10  -0.06    -0.06   0.03   0.06
   2   6     0.18   0.17   0.28    -0.14   0.10   0.01     0.07   0.01  -0.12
   3   6    -0.05   0.21  -0.11    -0.05   0.05  -0.10     0.12  -0.21   0.15
   4   6    -0.05   0.03  -0.06     0.03  -0.04   0.05    -0.05   0.08  -0.09
   5   6    -0.01  -0.12  -0.04     0.00  -0.16   0.14    -0.16   0.22  -0.14
   6   6    -0.04  -0.03   0.01    -0.06   0.04   0.01     0.09  -0.03  -0.02
   7   6     0.08  -0.08   0.12     0.05   0.14  -0.16    -0.01  -0.25   0.25
   8   1     0.56   0.13  -0.25     0.18  -0.32   0.01     0.08  -0.19   0.03
   9   1    -0.10  -0.04  -0.33    -0.28   0.46   0.08    -0.10   0.28   0.06
  10   1    -0.12   0.02   0.19     0.13   0.06  -0.28     0.24   0.01  -0.29
  11   1    -0.07   0.02  -0.02     0.02  -0.10   0.01     0.01   0.21  -0.01
  12   1    -0.08  -0.05   0.21    -0.14  -0.12   0.35    -0.10   0.06   0.13
  13   1    -0.12  -0.00  -0.02     0.12  -0.02   0.03    -0.20   0.09  -0.06
  14   1     0.08  -0.08  -0.09    -0.12   0.13   0.14     0.25  -0.20  -0.21
  15   1    -0.03   0.10   0.01     0.07  -0.20  -0.00    -0.15   0.28  -0.00
                     16                     17                     18
                        a                      a                      a 
 Frequencies --  1004.3064              1038.4322              1067.8834
 Red. masses --     4.6238                 5.7923                 3.4348
 Frc consts  --     0.0000                 0.0000                 0.0000
 IR Inten    --     4.9646                 2.5342                10.9522
 Raman Activ --     0.0000                 0.0000                 0.0000
 Depolar     --     0.0000                 0.0000                 0.0000
 Atom AN      X      Y      Z        X      Y      Z        X      Y      Z
   1   6     0.05  -0.01  -0.15     0.09   0.15   0.12     0.13  -0.03   0.09
   2   6     0.04   0.03   0.10    -0.17  -0.11   0.02    -0.18   0.01  -0.01
   3   6     0.05  -0.16  -0.11     0.20   0.17   0.05     0.04  -0.04  -0.14
   4   6     0.12   0.11   0.12    -0.16   0.03  -0.15     0.18  -0.00  -0.08
   5   6    -0.33  -0.26  -0.05     0.12  -0.14  -0.16    -0.02   0.03   0.04
   6   6     0.03   0.06   0.04    -0.29  -0.02   0.01     0.20   0.00   0.17
   7   6     0.15   0.03   0.09     0.23  -0.15  -0.09    -0.01   0.09  -0.14
   8   1    -0.23   0.47  -0.08    -0.18   0.19   0.06    -0.04   0.03   0.04
   9   1    -0.24   0.42   0.04    -0.09   0.07   0.05     0.02  -0.07   0.05
  10   1     0.04  -0.06   0.10     0.08   0.01   0.31    -0.04  -0.03   0.08
  11   1    -0.01   0.03   0.03     0.09  -0.06  -0.03    -0.39   0.21  -0.06
  12   1    -0.03  -0.12  -0.28    -0.07  -0.05   0.29    -0.05  -0.01   0.13
  13   1    -0.09  -0.08  -0.01     0.10   0.20   0.05    -0.55  -0.28  -0.10
  14   1     0.02  -0.02  -0.02     0.33  -0.02   0.03     0.11   0.12   0.16
  15   1     0.16   0.05   0.04    -0.29  -0.12  -0.09    -0.26  -0.15  -0.07
                     19                     20                     21
                        a                      a                      a 
 Frequencies --  1083.5318              1109.2788              1113.9256
 Red. masses --     5.0330                 7.4873                 4.4148
 Frc consts  --     0.0000                 0.0000                 0.0000
 IR Inten    --     1.2189                 0.9387                 0.6233
 Raman Activ --     0.0000                 0.0000                 0.0000
 Depolar     --     0.0000                 0.0000                 0.0000
 Atom AN      X      Y      Z        X      Y      Z        X      Y      Z
   1   6    -0.15   0.29   0.10     0.07   0.06   0.13     0.03  -0.03   0.06
   2   6     0.16  -0.40  -0.03    -0.18  -0.05   0.02    -0.01  -0.02  -0.01
   3   6     0.09   0.16  -0.09     0.09   0.04  -0.20     0.04   0.21   0.24
   4   6    -0.02  -0.05  -0.09     0.01  -0.06   0.20    -0.08  -0.17  -0.27
   5   6    -0.00   0.05   0.04     0.08  -0.05  -0.30     0.06   0.09  -0.22
   6   6     0.05  -0.04   0.01     0.30  -0.15  -0.26     0.05  -0.04   0.08
   7   6    -0.06   0.02   0.00    -0.16   0.22   0.30    -0.10   0.03   0.07
   8   1     0.19  -0.37   0.06    -0.07   0.03   0.06    -0.09   0.12   0.02
   9   1    -0.21   0.34   0.04    -0.02  -0.01   0.07    -0.00   0.00   0.01
  10   1    -0.19  -0.04   0.39    -0.31  -0.04   0.04     0.40   0.09   0.14
  11   1    -0.11  -0.06  -0.04     0.08   0.06   0.06    -0.29  -0.21  -0.12
  12   1     0.10   0.03  -0.27    -0.23  -0.27   0.21    -0.14  -0.13   0.13
  13   1    -0.04  -0.06  -0.01     0.12   0.00  -0.06    -0.04  -0.18   0.00
  14   1    -0.00   0.01   0.01    -0.16  -0.00  -0.06    -0.24  -0.03  -0.06
  15   1     0.04   0.02   0.01    -0.13   0.22   0.04     0.41   0.10   0.10
                     22                     23                     24
                        a                      a                      a 
 Frequencies --  1131.9783              1181.6393              1214.6282
 Red. masses --     6.5422                 3.7871                 4.5290
 Frc consts  --     0.0000                 0.0000                 0.0000
 IR Inten    --     0.8980                 9.9114                 1.7800
 Raman Activ --     0.0000                 0.0000                 0.0000
 Depolar     --     0.0000                 0.0000                 0.0000
 Atom AN      X      Y      Z        X      Y      Z        X      Y      Z
   1   6     0.04   0.11   0.11    -0.05   0.20  -0.15     0.06  -0.22   0.14
   2   6    -0.12  -0.07   0.03    -0.08   0.07   0.14     0.20  -0.10  -0.13
   3   6     0.02  -0.24  -0.19     0.07  -0.19  -0.02     0.12   0.19   0.25
   4   6     0.14   0.17   0.09    -0.02  -0.09   0.02    -0.08  -0.04  -0.06
   5   6     0.05   0.04  -0.28    -0.11  -0.11  -0.06    -0.13  -0.01  -0.01
   6   6    -0.25   0.24   0.17     0.05  -0.08  -0.05     0.02   0.04  -0.07
   7   6     0.17  -0.21  -0.05     0.22   0.12   0.07     0.17   0.03   0.02
   8   1     0.03  -0.08   0.05     0.08  -0.07  -0.04    -0.11   0.18   0.02
   9   1     0.02  -0.06   0.06     0.00  -0.04   0.02    -0.05   0.14  -0.04
  10   1    -0.30  -0.10   0.00     0.35  -0.05   0.21    -0.42   0.06  -0.30
  11   1    -0.04   0.01   0.01     0.03   0.04   0.02    -0.20  -0.28  -0.07
  12   1     0.01   0.19   0.27     0.16   0.35   0.08     0.10   0.27   0.07
  13   1    -0.11  -0.01   0.04    -0.01   0.03  -0.02    -0.06   0.03  -0.03
  14   1    -0.19  -0.12  -0.13    -0.54  -0.03  -0.09    -0.25  -0.02  -0.05
  15   1     0.43  -0.00   0.06    -0.32  -0.03  -0.06    -0.23  -0.03  -0.05
                     25                     26                     27
                        a                      a                      a 
 Frequencies --  1226.2548              1251.2771              1289.6124
 Red. masses --     5.4145                 4.5813                 9.2390
 Frc consts  --     0.0000                 0.0000                 0.0000
 IR Inten    --     0.5514                 1.6649                 0.7178
 Raman Activ --     0.0000                 0.0000                 0.0000
 Depolar     --     0.0000                 0.0000                 0.0000
 Atom AN      X      Y      Z        X      Y      Z        X      Y      Z
   1   6     0.20  -0.15  -0.13    -0.12   0.16   0.03     0.17  -0.28   0.17
   2   6    -0.03  -0.22   0.17    -0.06   0.15  -0.06     0.14  -0.20  -0.08
   3   6    -0.16  -0.02  -0.13    -0.04  -0.20   0.03    -0.39   0.10  -0.28
   4   6     0.10   0.13   0.12     0.17   0.23   0.12     0.07   0.05   0.11
   5   6    -0.08   0.15  -0.04     0.06  -0.03   0.05    -0.03   0.46   0.07
   6   6     0.07   0.01  -0.18    -0.06   0.17  -0.18    -0.07  -0.01   0.01
   7   6    -0.28   0.03   0.07     0.14  -0.09   0.11     0.22  -0.13  -0.02
   8   1    -0.03   0.07  -0.04     0.09  -0.12   0.01    -0.04   0.07   0.04
   9   1    -0.06   0.02   0.07     0.06  -0.08  -0.01    -0.01   0.05   0.01
  10   1     0.13  -0.01   0.10     0.07  -0.05  -0.00     0.17   0.02   0.16
  11   1    -0.06  -0.27  -0.01    -0.30  -0.57  -0.07     0.08   0.02   0.04
  12   1     0.16   0.47   0.22    -0.10  -0.29  -0.13    -0.16  -0.17  -0.06
  13   1     0.18  -0.18  -0.01     0.08  -0.17  -0.02    -0.03   0.14   0.00
  14   1     0.31   0.04   0.07     0.06  -0.08  -0.08    -0.24  -0.07  -0.08
  15   1    -0.00   0.12   0.02    -0.23  -0.01  -0.04    -0.16  -0.05  -0.05
                     28                     29                     30
                        a                      a                      a 
 Frequencies --  1304.9399              1426.6877              1459.2255
 Red. masses --     3.6401                10.3438                 2.4417
 Frc consts  --     0.0000                 0.0000                 0.0000
 IR Inten    --     2.1043                18.9884                 0.3272
 Raman Activ --     0.0000                 0.0000                 0.0000
 Depolar     --     0.0000                 0.0000                 0.0000
 Atom AN      X      Y      Z        X      Y      Z        X      Y      Z
   1   6     0.01  -0.03   0.06    -0.08   0.02   0.51     0.01  -0.01  -0.02
   2   6     0.03   0.00  -0.05     0.27   0.22  -0.37    -0.00  -0.03   0.02
   3   6    -0.02   0.02  -0.00    -0.27   0.02  -0.17     0.01   0.01   0.00
   4   6     0.01   0.25  -0.29     0.00  -0.12   0.08    -0.02  -0.10   0.03
   5   6    -0.01   0.01  -0.00    -0.07  -0.40  -0.11    -0.00   0.04   0.01
   6   6    -0.14  -0.11   0.17     0.02   0.13  -0.07     0.05   0.08  -0.04
   7   6     0.06  -0.00   0.12    -0.06   0.06   0.03    -0.11   0.27   0.14
   8   1    -0.01   0.01   0.02     0.03   0.01   0.15    -0.01   0.01  -0.01
   9   1     0.00   0.02  -0.01     0.12   0.06  -0.07    -0.01   0.00   0.01
  10   1    -0.08   0.01  -0.05     0.17   0.01   0.10     0.00   0.00   0.00
  11   1     0.17   0.23  -0.04     0.03   0.04   0.03    -0.01   0.03   0.02
  12   1    -0.01  -0.01  -0.01     0.11   0.16   0.09     0.00   0.02   0.00
  13   1     0.35  -0.69   0.14     0.02  -0.06  -0.02    -0.01  -0.02  -0.02
  14   1    -0.09  -0.05  -0.06     0.11   0.02   0.02     0.17  -0.27  -0.58
  15   1    -0.16  -0.02  -0.01     0.03   0.02   0.01     0.04  -0.65   0.09
                     31                     32                     33
                        a                      a                      a 
 Frequencies --  1476.6601              2962.2861              2974.0891
 Red. masses --    10.3660                 1.7561                 1.7413
 Frc consts  --     0.0000                 0.0000                 0.0000
 IR Inten    --    13.1203                48.6144                65.2554
 Raman Activ --     0.0000                 0.0000                 0.0000
 Depolar     --     0.0000                 0.0000                 0.0000
 Atom AN      X      Y      Z        X      Y      Z        X      Y      Z
   1   6     0.02  -0.02  -0.10    -0.00  -0.00  -0.00    -0.00   0.00  -0.00
   2   6    -0.02  -0.07   0.08     0.00   0.00  -0.00     0.00   0.00  -0.00
   3   6     0.07   0.02   0.02     0.00  -0.01  -0.00     0.00  -0.01  -0.00
   4   6    -0.10  -0.56   0.12     0.00   0.00   0.01     0.00   0.00  -0.01
   5   6     0.03   0.11   0.03     0.00  -0.00   0.00    -0.02   0.01  -0.00
   6   6    -0.10   0.63  -0.18    -0.06  -0.00   0.24    -0.02  -0.01   0.07
   7   6     0.10  -0.11   0.03     0.01   0.05  -0.05     0.00  -0.22   0.11
   8   1    -0.01   0.00  -0.03     0.00   0.00   0.00    -0.00  -0.00  -0.00
   9   1    -0.03  -0.00   0.00    -0.01  -0.00   0.00    -0.00  -0.00   0.00
  10   1    -0.00   0.00   0.01    -0.00   0.02   0.00    -0.01   0.05   0.01
  11   1     0.01   0.16   0.07    -0.01   0.00  -0.01    -0.00  -0.00   0.02
  12   1    -0.02  -0.04  -0.02    -0.01   0.01  -0.00     0.07  -0.04   0.02
  13   1     0.06  -0.29  -0.03     0.22   0.01  -0.90     0.05   0.00  -0.23
  14   1     0.04   0.00   0.05     0.00  -0.21   0.10    -0.00   0.83  -0.43
  15   1    -0.09   0.11  -0.03    -0.03   0.02   0.12    -0.00  -0.03   0.04
                     34                     35                     36
                        a                      a                      a 
 Frequencies --  2992.2109              2996.3075              3014.9621
 Red. masses --     1.7871                 1.7577                 1.7891
 Frc consts  --     0.0000                 0.0000                 0.0000
 IR Inten    --    54.5255                53.3935                38.9808
 Raman Activ --     0.0000                 0.0000                 0.0000
 Depolar     --     0.0000                 0.0000                 0.0000
 Atom AN      X      Y      Z        X      Y      Z        X      Y      Z
   1   6    -0.00   0.00  -0.00    -0.00  -0.00  -0.00     0.00   0.00   0.00
   2   6    -0.00   0.00  -0.00     0.00   0.00  -0.00     0.00   0.00  -0.00
   3   6    -0.03   0.26   0.04    -0.01   0.06   0.01    -0.00  -0.00   0.00
   4   6    -0.00  -0.00   0.02     0.00   0.00  -0.02    -0.01  -0.01   0.06
   5   6     0.00  -0.00  -0.00     0.01  -0.00   0.01    -0.21   0.13  -0.07
   6   6    -0.00   0.00   0.00    -0.01  -0.00   0.04     0.00   0.00  -0.00
   7   6     0.01  -0.01  -0.05    -0.05   0.02   0.24    -0.01   0.02   0.00
   8   1     0.01   0.01   0.02     0.00   0.00   0.01    -0.01  -0.01  -0.03
   9   1     0.01   0.01  -0.01     0.00   0.00  -0.00    -0.02  -0.01   0.01
  10   1     0.09  -0.92  -0.13     0.02  -0.21  -0.03    -0.00   0.00   0.00
  11   1     0.01   0.01  -0.10    -0.01  -0.01   0.08     0.03   0.02  -0.20
  12   1    -0.00   0.00  -0.00    -0.02   0.01  -0.01     0.78  -0.46   0.25
  13   1     0.00  -0.00  -0.01     0.03   0.00  -0.13     0.00   0.00   0.00
  14   1     0.00   0.04  -0.03    -0.01   0.00   0.03     0.00  -0.07   0.04
  15   1    -0.04   0.02   0.21     0.19  -0.08  -0.90     0.01  -0.00  -0.05
                     37                     38                     39
                        a                      a                      a 
 Frequencies --  3017.7967              3145.7145              3164.8409
 Red. masses --     1.7900                 1.8545                 1.9504
 Frc consts  --     0.0000                 0.0000                 0.0000
 IR Inten    --    90.8220                38.8857                19.8065
 Raman Activ --     0.0000                 0.0000                 0.0000
 Depolar     --     0.0000                 0.0000                 0.0000
 Atom AN      X      Y      Z        X      Y      Z        X      Y      Z
   1   6     0.00   0.00   0.00     0.07   0.05   0.25    -0.02  -0.02  -0.10
   2   6    -0.00  -0.00   0.00    -0.07  -0.04   0.03    -0.21  -0.13   0.11
   3   6    -0.00   0.02  -0.00    -0.00   0.01   0.00     0.00  -0.01   0.00
   4   6     0.03   0.03  -0.25    -0.00  -0.00   0.00     0.00   0.00   0.00
   5   6    -0.05   0.03  -0.02     0.00  -0.01   0.00    -0.01   0.01  -0.00
   6   6     0.00  -0.00  -0.01    -0.00  -0.00   0.00     0.00   0.00   0.00
   7   6     0.00   0.01  -0.03    -0.00  -0.00   0.00     0.00   0.00   0.00
   8   1    -0.00  -0.00  -0.01    -0.25  -0.19  -0.85     0.09   0.07   0.30
   9   1    -0.00   0.00  -0.00     0.25   0.16  -0.13     0.71   0.44  -0.35
  10   1     0.01  -0.08  -0.01     0.00  -0.01  -0.00    -0.00   0.02   0.00
  11   1    -0.12  -0.09   0.92     0.00   0.00  -0.00    -0.00  -0.00  -0.00
  12   1     0.17  -0.10   0.05    -0.01   0.01  -0.00     0.03  -0.02   0.01
  13   1    -0.01   0.00  -0.00     0.00   0.00  -0.01     0.00  -0.00  -0.01
  14   1     0.00  -0.03   0.01    -0.00   0.00  -0.00     0.00  -0.00  -0.00
  15   1    -0.02   0.01   0.09     0.00  -0.00  -0.00    -0.00  -0.00  -0.00
