      -----------------------------------------------------------      
     |                   =====================                   |     
     |                           x T B                           |     
     |                   =====================                   |     
     |                         S. Grimme                         |     
     |          Mulliken Center for Theoretical Chemistry        |     
     |                    University of Bonn                     |     
      -----------------------------------------------------------      

   * xtb version 6.7.1 (unknown) compiled by 'runner@Mac-1732184002186.local' on 2024-11-21

   xtb is free software: you can redistribute it and/or modify it under
   the terms of the GNU Lesser General Public License as published by
   the Free Software Foundation, either version 3 of the License, or
   (at your option) any later version.
   
   xtb is distributed in the hope that it will be useful,
   but WITHOUT ANY WARRANTY; without even the implied warranty of
   MERCHANTABILITY or FITNESS FOR A PARTICULAR PURPOSE.  See the
   GNU Lesser General Public License for more details.
   
   Cite this work as:
   * C. Bannwarth, E. Caldeweyher, S. Ehlert, A. Hansen, P. Pracht,
     J. Seibert, S. Spicher, S. Grimme, WIREs Comput. Mol. Sci., 2020, 11,
     e01493. DOI: 10.1002/wcms.1493
   
   for GFN2-xTB:
   * C. Bannwarth, S. Ehlert and S. Grimme., J. Chem. Theory Comput., 2019,
     15, 1652-1671. DOI: 10.1021/acs.jctc.8b01176
   for GFN1-xTB:
   * S. Grimme, C. Bannwarth, P. Shushkov, J. Chem. Theory Comput., 2017,
     13, 1989-2009. DOI: 10.1021/acs.jctc.7b00118
   for GFN0-xTB:
   * P. Pracht, E. Caldeweyher, S. Ehlert, S. Grimme, ChemRxiv, 2019, preprint.
     DOI: 10.26434/chemrxiv.8326202.v1
   for GFN-FF:
   * S. Spicher and S. Grimme, Angew. Chem. Int. Ed., 2020, 59, 15665-15673.
     DOI: 10.1002/anie.202004239
   
   for ALPB and GBSA implicit solvation:
   * S. Ehlert, M. Stahn, S. Spicher, S. Grimme, J. Chem. Theory Comput.,
     2021, 17, 4250-4261. DOI: 10.1021/acs.jctc.1c00471
   
   for ddCOSMO and CPCM-X implicit solvation:
   * M. Stahn, S. Ehlert, S. Grimme, J. Phys. Chem. A,
     2023, XX, XXXX-XXXX. DOI: 10.1021/acs.jpca.3c04382
   
   for DFT-D4:
   * E. Caldeweyher, C. Bannwarth and S. Grimme, J. Chem. Phys., 2017,
     147, 034112. DOI: 10.1063/1.4993215
   * E. Caldeweyher, S. Ehlert, A. Hansen, H. Neugebauer, S. Spicher,
     C. Bannwarth and S. Grimme, J. Chem. Phys., 2019, 150, 154122.
     DOI: 10.1063/1.5090222
   * E. Caldeweyher, J.-M. Mewes, S. Ehlert and S. Grimme, Phys. Chem. Chem. Phys.
     2020, 22, 8499-8512. DOI: 10.1039/D0CP00502A
   
   for sTDA-xTB:
   * S. Grimme and C. Bannwarth, J. Chem. Phys., 2016, 145, 054103.
     DOI: 10.1063/1.4959605
   
   in the mass-spec context:
   * V. Asgeirsson, C. Bauer and S. Grimme, Chem. Sci., 2017, 8, 4879.
     DOI: 10.1039/c7sc00601b
   * J. Koopman and S. Grimme, ACS Omega 2019, 4, 12, 15120-15133.
     DOI: 10.1021/acsomega.9b02011
   
   for metadynamics refer to:
   * S. Grimme, J. Chem. Theory Comput., 2019, 155, 2847-2862
     DOI: 10.1021/acs.jctc.9b00143
   
   for SPH calculations refer to:
   * S. Spicher and S. Grimme, J. Chem. Theory Comput., 2021, 17, 1701-1714
     DOI: 10.1021/acs.jctc.0c01306
   
   for ONIOM refer to:
   * C. Plett, A. Katbashev, S. Ehlert, S. Grimme, M. Bursch,
     Phys. Chem. Chem. Phys., 2023, 25, 17860-17868. DOI: 10.1039/D3CP02178E
   
   for DIPRO refer to:
   * J. Kohn, N. Gildemeister, S. Grimme, D. Fazzi, A. Hansen,
     J. Chem. Phys., 2023, just accepted.
   
   for PTB refer to:
   * S. Grimme, M. Mueller, A. Hansen, J. Chem. Phys., 2023, 158, 124111.
     DOI: 10.1063/5.0137838
   
   with help from (in alphabetical order)
   P. Atkinson, C. Bannwarth, F. Bohle, G. Brandenburg, E. Caldeweyher
   M. Checinski, S. Dohm, S. Ehlert, S. Ehrlich, I. Gerasimov, C. Hölzer
   A. Katbashev, J. Kohn, J. Koopman, C. Lavigne, S. Lehtola, F. März, M. Müller,
   F. Musil, H. Neugebauer, J. Pisarek, C. Plett, P. Pracht, F. Pultar,
   J. Seibert, P. Shushkov, S. Spicher, M. Stahn, M. Steiner, T. Strunk,
   J. Stückrath, T. Rose, and J. Unsleber
   
 * started run on 2026/09/04 at 18:34:42.885     
   ID    Z sym.   atoms
    1    6 C      1-7
    2    1 H      8-15

           -------------------------------------------------
          |                Calculation Setup                |
           -------------------------------------------------

          program call               : /opt/homebrew/bin/xtb temp_frame_opt.xyz --chrg 0 --uhf 0 --gfn 2 --acc 1.0 --etemp 300.0 --parallel 1 --ohess normal --input control.txt
          coordinate file            : temp_frame_opt.xyz
          omp threads                :                     1


molecular fragmentation (1/2 indicates fragments):
111111111111112
# atoms in fragment 1/2:    14     1
 fragment masses (1/2) :       91.13        1.01
CMA distance (Bohr)    :   3.739
constraining FC (au)   :  0.0500

           -------------------------------------------------
          |                 G F N 2 - x T B                 |
           -------------------------------------------------

        Reference                      10.1021/acs.jctc.8b01176
      * Hamiltonian:
        H0-scaling (s, p, d)           1.850000    2.230000    2.230000
        zeta-weighting                 0.500000
      * Dispersion:
        s8                             2.700000
        a1                             0.520000
        a2                             5.000000
        s9                             5.000000
      * Repulsion:
        kExp                           1.500000    1.000000
        rExp                           1.000000
      * Coulomb:
        alpha                          2.000000
        third order                    shell-resolved
        anisotropic                    true
        a3                             3.000000
        a5                             4.000000
        cn-shift                       1.200000
        cn-exp                         4.000000
        max-rad                        5.000000

q/qsh data taken from xtbrestart
CAMM data taken from xtbrestart

          ...................................................
          :                      SETUP                      :
          :.................................................:
          :  # basis functions                  36          :
          :  # atomic orbitals                  36          :
          :  # shells                           22          :
          :  # electrons                        36          :
          :  max. iterations                   250          :
          :  Hamiltonian                  GFN2-xTB          :
          :  restarted?                       true          :
          :  GBSA solvation                  false          :
          :  PC potential                    false          :
          :  electronic temp.          300.0000000     K    :
          :  accuracy                    1.0000000          :
          :  -> integral cutoff          0.2500000E+02      :
          :  -> integral neglect         0.1000000E-07      :
          :  -> SCF convergence          0.1000000E-05 Eh   :
          :  -> wf. convergence          0.1000000E-03 e    :
          :  Broyden damping             0.4000000          :
          :  net charge                          0          :
          :  unpaired electrons                  0          :
          ...................................................

 iter      E             dE          RMSdq      gap      omega  full diag
   1    -18.7891271 -0.187891E+02  0.379E+00    3.59       0.0  T
   2    -18.6403425  0.148785E+00  0.416E+00    1.08       1.0  T
   3    -18.9030543 -0.262712E+00  0.213E+00    2.40       1.0  T
   4    -18.9109691 -0.791487E-02  0.104E+00    1.59       1.0  T
   5    -18.9278970 -0.169278E-01  0.355E-01    1.63       1.0  T
   6    -18.9294978 -0.160087E-02  0.114E-01    1.73       1.0  T
   7    -18.9295113 -0.134152E-04  0.665E-02    1.75       1.0  T
   8    -18.9295668 -0.555030E-04  0.255E-02    1.73       1.0  T
   9    -18.9295722 -0.545117E-05  0.867E-03    1.73       3.0  T
  10    -18.9295725 -0.323396E-06  0.348E-03    1.73       7.4  T
  11    -18.9295727 -0.148573E-06  0.131E-03    1.73      19.7  T
  12    -18.9295727 -0.125679E-07  0.764E-04    1.73      33.8  T
  13    -18.9295727 -0.662515E-08  0.182E-04    1.73     141.5  T

   *** convergence criteria satisfied after 13 iterations ***

         #    Occupation            Energy/Eh            Energy/eV
      -------------------------------------------------------------
         1        2.0000           -0.7023146             -19.1110
       ...           ...                  ...                  ...
        12        2.0000           -0.4683110             -12.7434
        13        2.0000           -0.4508699             -12.2688
        14        2.0000           -0.4295094             -11.6875
        15        2.0000           -0.4167337             -11.3399
        16        2.0000           -0.3835287             -10.4363
        17        2.0000           -0.3703683             -10.0782
        18        2.0000           -0.3082744              -8.3886 (HOMO)
        19                         -0.2447641              -6.6604 (LUMO)
        20                         -0.1844683              -5.0196
        21                         -0.1475991              -4.0164
        22                         -0.1365178              -3.7148
        23                         -0.0935067              -2.5444
       ...                                ...                  ...
        36                          0.5222097              14.2100
      -------------------------------------------------------------
                  HL-Gap            0.0635103 Eh            1.7282 eV
             Fermi-level           -0.2765193 Eh           -7.5245 eV

 SCC (total)                   0 d,  0 h,  0 min,  0.006 sec
 SCC setup                      ...        0 min,  0.000 sec (  0.555%)
 Dispersion                     ...        0 min,  0.000 sec (  0.544%)
 classical contributions        ...        0 min,  0.000 sec (  0.195%)
 integral evaluation            ...        0 min,  0.000 sec (  7.436%)
 iterations                     ...        0 min,  0.005 sec ( 69.460%)
 molecular gradient             ...        0 min,  0.001 sec ( 21.161%)
 printout                       ...        0 min,  0.000 sec (  0.555%)

         :::::::::::::::::::::::::::::::::::::::::::::::::::::
         ::                     SUMMARY                     ::
         :::::::::::::::::::::::::::::::::::::::::::::::::::::
         :: total energy             -18.645731478109 Eh    ::
         :: gradient norm              0.270525330557 Eh/a0 ::
         :: HOMO-LUMO gap              1.728203039343 eV    ::
         ::.................................................::
         :: SCC energy               -18.929556829904 Eh    ::
         :: -> isotropic ES            0.009137880846 Eh    ::
         :: -> anisotropic ES          0.007649076973 Eh    ::
         :: -> anisotropic XC          0.014452976787 Eh    ::
         :: -> dispersion             -0.010951809707 Eh    ::
         :: repulsion energy           0.283825351796 Eh    ::
         :: add. restraining           0.000000000000 Eh    ::
         :: total charge               0.000000000000 e     ::
         :::::::::::::::::::::::::::::::::::::::::::::::::::::

      ----------------------------------------------------------- 
     |                       L-ANC optimizer                     |
      ----------------------------------------------------------- 
          low memory version by Sebastian Ehlert

          ...................................................
          :                      SETUP                      :
          :.................................................:
          :   energy convergence        0.5000000E-05 Eh    :
          :   grad. convergence         0.1000000E-02 Eh/a0 :
          :   optimization log               true           :
          :   writing optlog all                1     steps :
          :   Hessian reset                    25     steps :
          :   maximium step len.        1.0000000     a0    :
          :   LBFGS images                     25           :
          ...................................................
 * calculating model hessian...
Using Lindh-Hessian (1995)
 Shifting diagonal of input Hessian by    1.0000000000000000E-002
 Lowest  eigenvalues of input Hessian
    0.000000    0.000000    0.000000    0.000000    0.000000    0.000000
    0.014578    0.014971    0.021479    0.026435    0.032577    0.036014
    0.038209    0.044120    0.048048    0.061781    0.072999    0.074188
 Highest eigenvalues
    1.214608    1.382348    1.521567    1.644873    1.730748    1.962628


........................................................................
.............................. CYCLE    1 ..............................
........................................................................

 iter      E             dE          RMSdq      gap      omega  full diag
   1    -19.0092748 -0.190093E+02  0.878E-01    1.92       0.0  T
   2    -19.0098917 -0.616913E-03  0.558E-01    1.91       1.0  T
   3    -19.0092542  0.637505E-03  0.313E-01    1.93       1.0  T
   4    -19.0104237 -0.116945E-02  0.676E-02    1.93       1.0  T
   5    -19.0104624 -0.386752E-04  0.280E-02    1.92       1.0  T
   6    -19.0104603  0.203279E-05  0.195E-02    1.93       1.3  T
   7    -19.0104653 -0.498622E-05  0.471E-03    1.92       5.5  T
   8    -19.0104654 -0.131266E-06  0.269E-03    1.92       9.6  T
   9    -19.0104655 -0.445420E-07  0.109E-03    1.92      23.6  T
  10    -19.0104655 -0.693039E-08  0.199E-04    1.92     129.8  T
  11    -19.0104655 -0.500155E-09  0.753E-05    1.92     342.7  T
     SCC iter.                  ...        0 min,  0.003 sec
     gradient                   ...        0 min,  0.001 sec
 * total energy  :   -18.7452563 Eh     change       -0.9952480E-01 Eh
   gradient norm :     0.1382717 Eh/a0  converged?    E=F G=F D=F
   step length   :     0.6289243 a0

........................................................................
.............................. CYCLE    2 ..............................
........................................................................

 iter      E             dE          RMSdq      gap      omega  full diag
   1    -19.0779981 -0.190780E+02  0.937E-01    1.90       0.0  T
   2    -19.0781978 -0.199682E-03  0.558E-01    1.94       1.0  T
   3    -19.0771917  0.100609E-02  0.282E-01    1.84       1.0  T
   4    -19.0782356 -0.104390E-02  0.889E-02    1.95       1.0  T
   5    -19.0783641 -0.128508E-03  0.200E-02    1.92       1.3  T
   6    -19.0783646 -0.495870E-06  0.807E-03    1.92       3.2  T
   7    -19.0783650 -0.383989E-06  0.240E-03    1.92      10.7  T
   8    -19.0783650 -0.146102E-07  0.144E-03    1.92      18.0  T
   9    -19.0783650 -0.151107E-07  0.490E-04    1.92      52.7  T
  10    -19.0783650 -0.112131E-08  0.101E-04    1.92     255.6  T
     SCC iter.                  ...        0 min,  0.004 sec
     gradient                   ...        0 min,  0.001 sec
 * total energy  :   -18.8009725 Eh     change       -0.5571621E-01 Eh
   gradient norm :     0.0822310 Eh/a0  converged?    E=F G=F D=F
   step length   :     2.5852350 a0

........................................................................
.............................. CYCLE    3 ..............................
........................................................................

 iter      E             dE          RMSdq      gap      omega  full diag
   1    -19.0952631 -0.190953E+02  0.898E-01    1.81       0.0  T
   2    -19.0952367  0.264033E-04  0.559E-01    1.70       1.0  T
   3    -19.0922661  0.297066E-02  0.501E-01    1.92       1.0  T
   4    -19.0957767 -0.351058E-02  0.725E-02    1.74       1.0  T
   5    -19.0958664 -0.897829E-04  0.198E-02    1.76       1.3  T
   6    -19.0958698 -0.338054E-05  0.747E-03    1.75       3.5  T
   7    -19.0958700 -0.167791E-06  0.299E-03    1.75       8.6  T
   8    -19.0958700 -0.483904E-07  0.812E-04    1.75      31.8  T
   9    -19.0958700 -0.467230E-08  0.306E-04    1.75      84.5  T
     SCC iter.                  ...        0 min,  0.003 sec
     gradient                   ...        0 min,  0.001 sec
 * total energy  :   -18.8235259 Eh     change       -0.2255344E-01 Eh
   gradient norm :     0.0912324 Eh/a0  converged?    E=F G=F D=F
   step length   :     1.7737630 a0

........................................................................
.............................. CYCLE    4 ..............................
........................................................................

 iter      E             dE          RMSdq      gap      omega  full diag
   1    -19.1019448 -0.191019E+02  0.110E+00    1.60       0.0  T
   2    -19.0994347  0.251010E-02  0.815E-01    1.84       1.0  T
   3    -19.0987030  0.731649E-03  0.709E-01    1.56       1.0  T
   4    -19.1039694 -0.526633E-02  0.142E-01    1.70       1.0  T
   5    -19.1042513 -0.281937E-03  0.327E-02    1.68       1.0  T
   6    -19.1042606 -0.933587E-05  0.139E-02    1.68       1.9  T
   7    -19.1042616 -0.997091E-06  0.334E-03    1.68       7.7  T
   8    -19.1042617 -0.870560E-07  0.143E-03    1.68      18.1  T
   9    -19.1042617 -0.104504E-07  0.844E-04    1.68      30.6  T
  10    -19.1042617 -0.608436E-08  0.118E-04    1.68     218.7  T
     SCC iter.                  ...        0 min,  0.003 sec
     gradient                   ...        0 min,  0.002 sec
 * total energy  :   -18.8306567 Eh     change       -0.7130813E-02 Eh
   gradient norm :     0.1063423 Eh/a0  converged?    E=F G=F D=F
   step length   :     1.1226870 a0

........................................................................
.............................. CYCLE    5 ..............................
........................................................................

 iter      E             dE          RMSdq      gap      omega  full diag
   1    -19.1437129 -0.191437E+02  0.649E-01    1.85       0.0  T
   2    -19.1438027 -0.897884E-04  0.412E-01    1.91       1.0  T
   3    -19.1422257  0.157704E-02  0.390E-01    1.81       1.0  T
   4    -19.1441501 -0.192448E-02  0.107E-01    1.90       1.0  T
   5    -19.1442953 -0.145164E-03  0.230E-02    1.88       1.1  T
   6    -19.1442994 -0.405350E-05  0.941E-03    1.88       2.7  T
   7    -19.1442997 -0.320381E-06  0.394E-03    1.88       6.5  T
   8    -19.1442998 -0.720973E-07  0.870E-04    1.88      29.7  T
   9    -19.1442998 -0.471429E-08  0.390E-04    1.88      66.2  T
     SCC iter.                  ...        0 min,  0.003 sec
     gradient                   ...        0 min,  0.002 sec
 * total energy  :   -18.8327080 Eh     change       -0.2051274E-02 Eh
   gradient norm :     0.1072805 Eh/a0  converged?    E=F G=F D=F
   step length   :     0.5720019 a0

........................................................................
.............................. CYCLE    6 ..............................
........................................................................

 iter      E             dE          RMSdq      gap      omega  full diag
   1    -19.1134643 -0.191135E+02  0.765E-01    2.04       0.0  T
   2    -19.1137560 -0.291671E-03  0.500E-01    1.97       1.0  T
   3    -19.1132668  0.489154E-03  0.355E-01    2.08       1.0  T
   4    -19.1141138 -0.846974E-03  0.136E-01    1.98       1.0  T
   5    -19.1144196 -0.305826E-03  0.211E-02    2.01       1.2  T
   6    -19.1144214 -0.179428E-05  0.108E-02    2.01       2.4  T
   7    -19.1144219 -0.470620E-06  0.382E-03    2.01       6.8  T
   8    -19.1144220 -0.858543E-07  0.104E-03    2.01      24.8  T
   9    -19.1144220 -0.371343E-08  0.447E-04    2.01      57.8  T
  10    -19.1144220 -0.436870E-09  0.978E-05    2.01     264.1  T
     SCC iter.                  ...        0 min,  0.003 sec
     gradient                   ...        0 min,  0.002 sec
 * total energy  :   -18.8360114 Eh     change       -0.3303431E-02 Eh
   gradient norm :     0.0711745 Eh/a0  converged?    E=F G=F D=F
   step length   :     0.6071016 a0

........................................................................
.............................. CYCLE    7 ..............................
........................................................................

 iter      E             dE          RMSdq      gap      omega  full diag
   1    -19.1230308 -0.191230E+02  0.666E-01    1.98       0.0  T
   2    -19.1214942  0.153668E-02  0.574E-01    2.14       1.0  T
   3    -19.1238219 -0.232771E-02  0.345E-01    2.00       1.0  T
   4    -19.1245283 -0.706408E-03  0.470E-02    2.04       1.0  T
   5    -19.1245598 -0.314911E-04  0.119E-02    2.04       2.2  T
   6    -19.1245602 -0.470825E-06  0.559E-03    2.04       4.6  T
   7    -19.1245604 -0.125669E-06  0.150E-03    2.04      17.3  T
   8    -19.1245604 -0.118985E-07  0.689E-04    2.04      37.5  T
   9    -19.1245604 -0.243590E-08  0.272E-04    2.04      95.0  T
     SCC iter.                  ...        0 min,  0.003 sec
     gradient                   ...        0 min,  0.001 sec
 * total energy  :   -18.8440896 Eh     change       -0.8078115E-02 Eh
   gradient norm :     0.0665419 Eh/a0  converged?    E=F G=F D=F
   step length   :     0.4771815 a0

........................................................................
.............................. CYCLE    8 ..............................
........................................................................

 iter      E             dE          RMSdq      gap      omega  full diag
   1    -19.1445421 -0.191445E+02  0.594E-01    1.97       0.0  T
   2    -19.1412504  0.329170E-02  0.683E-01    2.16       1.0  T
   3    -19.1467148 -0.546448E-02  0.243E-01    2.02       1.0  T
   4    -19.1468093 -0.944291E-04  0.673E-02    2.03       1.0  T
   5    -19.1468606 -0.513331E-04  0.159E-02    2.03       1.6  T
   6    -19.1468607 -0.733410E-07  0.668E-03    2.04       3.9  T
   7    -19.1468611 -0.401125E-06  0.222E-03    2.03      11.6  T
   8    -19.1468611 -0.306974E-07  0.879E-04    2.03      29.4  T
   9    -19.1468611 -0.207747E-08  0.422E-04    2.03      61.2  T
     SCC iter.                  ...        0 min,  0.003 sec
     gradient                   ...        0 min,  0.001 sec
 * total energy  :   -18.8466171 Eh     change       -0.2527538E-02 Eh
   gradient norm :     0.0730829 Eh/a0  converged?    E=F G=F D=F
   step length   :     0.3930520 a0

........................................................................
.............................. CYCLE    9 ..............................
........................................................................

 iter      E             dE          RMSdq      gap      omega  full diag
   1    -19.1594012 -0.191594E+02  0.650E-01    2.04       0.0  T
   2    -19.1537747  0.562647E-02  0.827E-01    2.24       1.0  T
   3    -19.1628586 -0.908387E-02  0.239E-01    2.10       1.0  T
   4    -19.1629151 -0.564850E-04  0.837E-02    2.10       1.0  T
   5    -19.1629895 -0.743928E-04  0.167E-02    2.11       1.5  T
   6    -19.1629906 -0.107726E-05  0.900E-03    2.11       2.9  T
   7    -19.1629909 -0.305955E-06  0.265E-03    2.11       9.7  T
   8    -19.1629909 -0.652549E-07  0.750E-04    2.11      34.4  T
   9    -19.1629909 -0.182766E-08  0.424E-04    2.11      60.9  T
     SCC iter.                  ...        0 min,  0.003 sec
     gradient                   ...        0 min,  0.001 sec
 * total energy  :   -18.8532695 Eh     change       -0.6652391E-02 Eh
   gradient norm :     0.0717689 Eh/a0  converged?    E=F G=F D=F
   step length   :     0.3956362 a0

........................................................................
.............................. CYCLE   10 ..............................
........................................................................

 iter      E             dE          RMSdq      gap      omega  full diag
   1    -19.1251707 -0.191252E+02  0.135E+00    2.13       0.0  T
   2    -19.1002764  0.248943E-01  0.178E+00    2.39       1.0  T
   3    -19.1422890 -0.420125E-01  0.470E-01    2.16       1.0  T
   4    -19.1425122 -0.223209E-03  0.166E-01    2.16       1.0  T
   5    -19.1427305 -0.218310E-03  0.379E-02    2.17       1.0  T
   6    -19.1427424 -0.119210E-04  0.165E-02    2.17       1.6  T
   7    -19.1427433 -0.829439E-06  0.549E-03    2.17       4.7  T
   8    -19.1427435 -0.215027E-06  0.172E-03    2.17      15.0  T
   9    -19.1427435 -0.160911E-07  0.923E-04    2.17      28.0  T
  10    -19.1427435 -0.457956E-08  0.169E-04    2.17     152.9  T
     SCC iter.                  ...        0 min,  0.003 sec
     gradient                   ...        0 min,  0.001 sec
 * total energy  :   -18.8534819 Eh     change       -0.2124466E-03 Eh
   gradient norm :     0.0922801 Eh/a0  converged?    E=F G=F D=F
   step length   :     0.9211534 a0

........................................................................
.............................. CYCLE   11 ..............................
........................................................................

 iter      E             dE          RMSdq      gap      omega  full diag
   1    -19.1672152 -0.191672E+02  0.617E-01    2.02       0.0  T
   2    -19.1654880  0.172724E-02  0.528E-01    2.05       1.0  T
   3    -19.1663207 -0.832722E-03  0.423E-01    2.02       1.0  T
   4    -19.1678927 -0.157203E-02  0.558E-02    2.03       1.0  T
   5    -19.1679368 -0.440193E-04  0.135E-02    2.03       1.9  T
   6    -19.1679372 -0.433468E-06  0.634E-03    2.03       4.1  T
   7    -19.1679373 -0.994670E-07  0.172E-03    2.03      15.0  T
   8    -19.1679373 -0.185243E-07  0.673E-04    2.03      38.4  T
   9    -19.1679373 -0.146090E-08  0.346E-04    2.03      74.7  T
     SCC iter.                  ...        0 min,  0.003 sec
     gradient                   ...        0 min,  0.001 sec
 * total energy  :   -18.8685886 Eh     change       -0.1510666E-01 Eh
   gradient norm :     0.0438938 Eh/a0  converged?    E=F G=F D=F
   step length   :     0.5006672 a0

........................................................................
.............................. CYCLE   12 ..............................
........................................................................

 iter      E             dE          RMSdq      gap      omega  full diag
   1    -19.1696595 -0.191697E+02  0.831E-01    1.90       0.0  T
   2    -19.1473316  0.223279E-01  0.146E+00    1.98       1.0  T
   3    -19.1763954 -0.290638E-01  0.233E-01    1.90       1.0  T
   4    -19.1765046 -0.109195E-03  0.692E-02    1.89       1.0  T
   5    -19.1765507 -0.461055E-04  0.162E-02    1.90       1.6  T
   6    -19.1765509 -0.194762E-06  0.877E-03    1.90       2.9  T
   7    -19.1765516 -0.721695E-06  0.269E-03    1.90       9.6  T
   8    -19.1765517 -0.325064E-07  0.875E-04    1.90      29.5  T
   9    -19.1765517 -0.215999E-08  0.513E-04    1.90      50.3  T
     SCC iter.                  ...        0 min,  0.003 sec
     gradient                   ...        0 min,  0.002 sec
 * total energy  :   -18.8713450 Eh     change       -0.2756397E-02 Eh
   gradient norm :     0.0340299 Eh/a0  converged?    E=F G=F D=F
   step length   :     0.3929572 a0

........................................................................
.............................. CYCLE   13 ..............................
........................................................................

 iter      E             dE          RMSdq      gap      omega  full diag
   1    -19.1795481 -0.191795E+02  0.183E-01    1.93       0.0  T
   2    -19.1793423  0.205748E-03  0.170E-01    1.93       1.0  T
   3    -19.1795093 -0.167012E-03  0.127E-01    1.93       1.0  T
   4    -19.1796395 -0.130139E-03  0.259E-02    1.93       1.0  T
   5    -19.1796460 -0.656618E-05  0.516E-03    1.93       5.0  T
   6    -19.1796462 -0.184914E-06  0.235E-03    1.93      11.0  T
   7    -19.1796462 -0.970355E-08  0.600E-04    1.93      43.0  T
   8    -19.1796462 -0.152455E-08  0.282E-04    1.93      91.6  T
     SCC iter.                  ...        0 min,  0.002 sec
     gradient                   ...        0 min,  0.002 sec
 * total energy  :   -18.8731221 Eh     change       -0.1777141E-02 Eh
   gradient norm :     0.0183544 Eh/a0  converged?    E=F G=F D=F
   step length   :     0.1338669 a0

........................................................................
.............................. CYCLE   14 ..............................
........................................................................

 iter      E             dE          RMSdq      gap      omega  full diag
   1    -19.1791281 -0.191791E+02  0.193E-01    1.99       0.0  T
   2    -19.1785632  0.564894E-03  0.241E-01    2.00       1.0  T
   3    -19.1792551 -0.691828E-03  0.989E-02    2.00       1.0  T
   4    -19.1793099 -0.548198E-04  0.872E-03    2.00       3.0  T
   5    -19.1793107 -0.839377E-06  0.286E-03    2.00       9.0  T
   6    -19.1793108 -0.300592E-07  0.126E-03    2.00      20.5  T
   7    -19.1793108 -0.520501E-08  0.399E-04    2.00      64.8  T
   8    -19.1793108 -0.545828E-09  0.231E-04    2.00     111.7  T
     SCC iter.                  ...        0 min,  0.003 sec
     gradient                   ...        0 min,  0.002 sec
 * total energy  :   -18.8738314 Eh     change       -0.7093023E-03 Eh
   gradient norm :     0.0134041 Eh/a0  converged?    E=F G=F D=F
   step length   :     0.1714172 a0

........................................................................
.............................. CYCLE   15 ..............................
........................................................................

 iter      E             dE          RMSdq      gap      omega  full diag
   1    -19.1812877 -0.191813E+02  0.151E-01    1.99       0.0  T
   2    -19.1810920  0.195703E-03  0.151E-01    1.99       1.0  T
   3    -19.1812872 -0.195227E-03  0.963E-02    1.99       1.0  T
   4    -19.1813550 -0.677186E-04  0.150E-02    1.99       1.7  T
   5    -19.1813580 -0.304436E-05  0.243E-03    1.99      10.6  T
   6    -19.1813580 -0.128411E-07  0.109E-03    1.99      23.7  T
   7    -19.1813580 -0.331682E-08  0.344E-04    1.99      75.0  T
   8    -19.1813580 -0.292712E-09  0.182E-04    1.99     142.1  T
     SCC iter.                  ...        0 min,  0.002 sec
     gradient                   ...        0 min,  0.002 sec
 * total energy  :   -18.8742373 Eh     change       -0.4058448E-03 Eh
   gradient norm :     0.0141484 Eh/a0  converged?    E=F G=F D=F
   step length   :     0.1909421 a0

........................................................................
.............................. CYCLE   16 ..............................
........................................................................

 iter      E             dE          RMSdq      gap      omega  full diag
   1    -19.1795716 -0.191796E+02  0.108E-01    1.96       0.0  T
   2    -19.1793445  0.227128E-03  0.153E-01    1.96       1.0  T
   3    -19.1796342 -0.289672E-03  0.471E-02    1.96       1.0  T
   4    -19.1796423 -0.808630E-05  0.347E-03    1.96       7.4  T
   5    -19.1796424 -0.966708E-07  0.160E-03    1.96      16.2  T
   6    -19.1796424 -0.356069E-08  0.588E-04    1.96      43.9  T
   7    -19.1796424 -0.259565E-08  0.163E-04    1.96     158.1  T
     SCC iter.                  ...        0 min,  0.002 sec
     gradient                   ...        0 min,  0.001 sec
 * total energy  :   -18.8745361 Eh     change       -0.2988045E-03 Eh
   gradient norm :     0.0109201 Eh/a0  converged?    E=F G=F D=F
   step length   :     0.0895081 a0

........................................................................
.............................. CYCLE   17 ..............................
........................................................................

 iter      E             dE          RMSdq      gap      omega  full diag
   1    -19.1795605 -0.191796E+02  0.859E-02    1.95       0.0  T
   2    -19.1794965  0.640247E-04  0.888E-02    1.95       1.0  T
   3    -19.1795651 -0.686057E-04  0.538E-02    1.95       1.0  T
   4    -19.1795857 -0.205690E-04  0.143E-02    1.95       1.8  T
   5    -19.1795879 -0.222791E-05  0.166E-03    1.95      15.5  T
   6    -19.1795879 -0.160504E-07  0.889E-04    1.95      29.1  T
   7    -19.1795879 -0.416907E-08  0.228E-04    1.95     113.4  T
     SCC iter.                  ...        0 min,  0.002 sec
     gradient                   ...        0 min,  0.001 sec
 * total energy  :   -18.8747515 Eh     change       -0.2154606E-03 Eh
   gradient norm :     0.0069976 Eh/a0  converged?    E=F G=F D=F
   step length   :     0.1166148 a0

........................................................................
.............................. CYCLE   18 ..............................
........................................................................

 iter      E             dE          RMSdq      gap      omega  full diag
   1    -19.1794071 -0.191794E+02  0.375E-02    1.94       0.0  T
   2    -19.1793935  0.135756E-04  0.412E-02    1.94       1.0  T
   3    -19.1794088 -0.152586E-04  0.214E-02    1.94       1.2  T
   4    -19.1794117 -0.285265E-05  0.440E-03    1.94       5.9  T
   5    -19.1794119 -0.199960E-06  0.104E-03    1.94      24.9  T
   6    -19.1794119 -0.510759E-08  0.534E-04    1.94      48.3  T
   7    -19.1794119 -0.152612E-08  0.940E-05    1.94     274.7  T
     SCC iter.                  ...        0 min,  0.002 sec
     gradient                   ...        0 min,  0.001 sec
 * total energy  :   -18.8748089 Eh     change       -0.5732538E-04 Eh
   gradient norm :     0.0035969 Eh/a0  converged?    E=F G=F D=F
   step length   :     0.0497534 a0

........................................................................
.............................. CYCLE   19 ..............................
........................................................................

 iter      E             dE          RMSdq      gap      omega  full diag
   1    -19.1799150 -0.191799E+02  0.286E-02    1.94       0.0  T
   2    -19.1799065  0.853296E-05  0.322E-02    1.94       1.0  T
   3    -19.1799162 -0.971070E-05  0.159E-02    1.94       1.6  T
   4    -19.1799177 -0.151610E-05  0.175E-03    1.94      14.7  T
   5    -19.1799178 -0.290427E-07  0.669E-04    1.94      38.6  T
   6    -19.1799178 -0.156703E-08  0.204E-04    1.94     126.6  T
     SCC iter.                  ...        0 min,  0.002 sec
     gradient                   ...        0 min,  0.002 sec
 * total energy  :   -18.8748285 Eh     change       -0.1965552E-04 Eh
   gradient norm :     0.0016803 Eh/a0  converged?    E=F G=F D=F
   step length   :     0.0270884 a0

........................................................................
.............................. CYCLE   20 ..............................
........................................................................

 iter      E             dE          RMSdq      gap      omega  full diag
   1    -19.1800981 -0.191801E+02  0.248E-02    1.95       0.0  T
   2    -19.1800975  0.587152E-06  0.164E-02    1.95       1.6  T
   3    -19.1800916  0.591901E-05  0.230E-02    1.95       1.1  T
   4    -19.1800984 -0.678479E-05  0.126E-03    1.95      20.4  T
   5    -19.1800984 -0.224691E-07  0.374E-04    1.95      69.1  T
   6    -19.1800984 -0.489941E-09  0.205E-04    1.95     126.1  T
     SCC iter.                  ...        0 min,  0.002 sec
     gradient                   ...        0 min,  0.001 sec
 * total energy  :   -18.8748348 Eh     change       -0.6255761E-05 Eh
   gradient norm :     0.0016923 Eh/a0  converged?    E=F G=F D=F
   step length   :     0.0253560 a0

........................................................................
.............................. CYCLE   21 ..............................
........................................................................

 iter      E             dE          RMSdq      gap      omega  full diag
   1    -19.1798230 -0.191798E+02  0.125E-02    1.95       0.0  T
   2    -19.1798217  0.127747E-05  0.122E-02    1.95       2.1  T
   3    -19.1798228 -0.112123E-05  0.859E-03    1.95       3.0  T
   4    -19.1798234 -0.569031E-06  0.129E-03    1.95      20.0  T
   5    -19.1798234 -0.216799E-07  0.278E-04    1.95      93.0  T
   6    -19.1798234 -0.377607E-09  0.963E-05    1.95     268.1  T
     SCC iter.                  ...        0 min,  0.002 sec
     gradient                   ...        0 min,  0.001 sec
 * total energy  :   -18.8748388 Eh     change       -0.4034715E-05 Eh
   gradient norm :     0.0009139 Eh/a0  converged?    E=T G=T D=F
   step length   :     0.0102568 a0

   *** GEOMETRY OPTIMIZATION CONVERGED AFTER 21 CYCLES ***

------------------------------------------------------------------------
 total energy gain   :        -0.2291073 Eh     -143.7670 kcal/mol
 total RMSD          :         0.8069589 a0        0.4270 Å
 total power (kW/mol):       -28.6438676 (step)-5873.2014 (real)
------------------------------------------------------------------------

 L-ANCopt (total)              0 d,  0 h,  0 min,  0.102 sec
 setup                          ...        0 min,  0.000 sec (  0.134%)
 model hessian                  ...        0 min,  0.002 sec (  2.335%)
 ANC generation                 ...        0 min,  0.000 sec (  0.189%)
 coordinate transformation      ...        0 min,  0.000 sec (  0.051%)
 Rational function              ...        0 min,  0.000 sec (  0.023%)
 singlepoint calculation        ...        0 min,  0.099 sec ( 96.297%)
 optimization log               ...        0 min,  0.001 sec (  0.657%)
 hessian update                 ...        0 min,  0.000 sec (  0.043%)

================
 final structure:
================
15
 xtb: 6.7.1 (unknown)
C           -0.51402096904826       -0.59651003388788       -1.10370787661587
C           -1.09261487687549       -0.86719920356134        0.22596420614779
C            0.30964103311728       -1.39334544915151       -0.12029573442940
C            1.21131072843195       -0.58727763724540        0.72393805446111
C           -0.90986871945266        0.55493522293223       -0.20552824303264
C            1.33322343174579        0.66261082188965        0.15412967984556
C            0.16123431980200        1.50922314244748        0.45242671129817
H           -0.80988139303036       -0.82543626398986       -2.10702807447388
H           -1.93079049974806       -1.38971211891920        0.63459110149265
H            0.40592731725636       -2.46304755521090       -0.27770469793543
H            1.05768835083715       -0.67397815041523        1.79345618204906
H           -1.81545257424086        1.08140303357007       -0.49101258707198
H            1.57186890979764        0.66153387940881       -0.90984893015601
H            0.14992303925471        2.48506059495138       -0.03424420363003
H           -0.06143177941764        1.61585335837522        1.51320110803698

 Bond Distances (Angstroems)
 ---------------------------
C1-C2=1.4752         C1-C3=1.5101         C1-C5=1.5130         C1-H8=1.0708         C2-C1=1.4752         C2-C3=1.5372         
C2-C5=1.4973         C2-H9=1.0689         C3-C1=1.5101         C3-C2=1.5372         C3-C4=1.4750         C3-H10=1.0855        
C4-C3=1.4750         C4-C6=1.3790         C4-H11=1.0840        C5-C1=1.5130         C5-C2=1.4973         C5-C7=1.5782         
C5-H12=1.0857        C6-C4=1.3790         C6-C7=1.4762         C6-H13=1.0904        C7-C5=1.5782         C7-C6=1.4762         
C7-H14=1.0905        C7-H15=1.0891        H8-C1=1.0708         H9-C2=1.0689         H10-C3=1.0855        H11-C4=1.0840        
H12-C5=1.0857        H13-C6=1.0904        H14-C7=1.0905        H15-C7=1.0891        
 C  H  Rav=1.0831 sigma=0.0080  Rmin=1.0689  Rmax=1.0905     8
 C  C  Rav=1.4935 sigma=0.0515  Rmin=1.3790  Rmax=1.5782     9

 selected bond angles (degree)
 --------------------
C3-C1-C2= 61.97                C5-C1-C2= 60.13                C5-C1-C3= 99.07                H8-C1-C2=134.19                
H8-C1-C3=130.40                H8-C1-C5=130.29                C3-C2-C1= 60.13                C5-C2-C1= 61.19                
C5-C2-C3= 98.56                H9-C2-C1=137.89                H9-C2-C3=129.35                H9-C2-C5=132.08                
C2-C3-C1= 57.90                C4-C3-C1=114.70                C4-C3-C2=103.98                H10-C3-C1=118.29               
H10-C3-C2=116.80               H10-C3-C4=124.56               C6-C4-C3=108.23                H11-C4-C3=115.75               
H11-C4-C6=119.52               C2-C5-C1= 58.68                C7-C5-C1=122.01                C7-C5-C2=122.48                
H12-C5-C1=115.54               H12-C5-C2=115.76               H12-C5-C7=112.49               C7-C6-C4=111.48                
H13-C6-C4=114.94               H13-C6-C7=111.81               C6-C7-C5= 96.19                H14-C7-C5=110.36               
H14-C7-C6=115.55               H15-C7-C5=109.06               H15-C7-C6=114.54               H15-C7-H14=110.18              

 selected dihedral angles (degree)
 ---------------------------------
C3-C2-C1-C5=239.22            C3-C2-C1-H8=120.43            C5-C2-C1-C3=120.78            C5-C2-C1-H8=241.21            
H9-C2-C1-C3=242.93            H9-C2-C1-C5=122.15            H9-C2-C1-H8=  3.35            C2-C3-C1-C5= 48.98            
C2-C3-C1-H8=234.28            C4-C3-C1-C2=268.54            C4-C3-C1-C5=317.52            C4-C3-C1-H8=142.82            
H10-C3-C1-C2=105.47           H10-C3-C1-C5=154.45           H10-C3-C1-H8=339.76           C1-C3-C2-C5=310.42            
C1-C3-C2-H9=129.45            C4-C3-C2-C1=110.61            C4-C3-C2-C5= 61.03            C4-C3-C2-H9=240.06            
H10-C3-C2-C1=251.95           H10-C3-C2-C5=202.37           H10-C3-C2-H9= 21.40           C6-C4-C3-C1=344.08            
C6-C4-C3-C2=283.31            C6-C4-C3-H10=145.93           H11-C4-C3-C1=121.37           H11-C4-C3-C2= 60.59           
H11-C4-C3-H10=283.22          C2-C5-C1-C3=309.83            C2-C5-C1-H8=124.53            C7-C5-C1-C2=111.16            
C7-C5-C1-C3= 60.98            C7-C5-C1-H8=235.68            H12-C5-C1-C2=254.16           H12-C5-C1-C3=203.98           
H12-C5-C1-H8= 18.69           C1-C5-C2-C3= 48.89            C1-C5-C2-H9=229.90            C7-C5-C2-C1=249.62            
C7-C5-C2-C3=298.51            C7-C5-C2-H9=119.52            H12-C5-C2-C1=105.47           H12-C5-C2-C3=154.36           
H12-C5-C2-H9=335.37           C7-C6-C4-C3= 78.86            C7-C6-C4-H11=303.45           H13-C6-C4-C3=310.31           
H13-C6-C4-H11=174.90          C6-C7-C5-C1=346.95            C6-C7-C5-C2= 57.76            C6-C7-C5-H12=202.94           
H14-C7-C5-C1=107.14           H14-C7-C5-C2=177.95           H14-C7-C5-H12=323.14          H15-C7-C5-C1=228.31           
H15-C7-C5-C2=299.11           H15-C7-C5-H12= 84.30          C5-C7-C6-C4=300.91            C5-C7-C6-H13= 71.11           
H14-C7-C6-C4=184.82           H14-C7-C6-H13=315.02          H15-C7-C6-C4= 55.14           H15-C7-C6-H13=185.34          

 CMA Distance (Angstroems)
 ---------------------------
R(CMA):  2.2949
           -------------------------------------------------
          |                Final Singlepoint                |
           -------------------------------------------------

          ...................................................
          :                      SETUP                      :
          :.................................................:
          :  # basis functions                  36          :
          :  # atomic orbitals                  36          :
          :  # shells                           22          :
          :  # electrons                        36          :
          :  max. iterations                   250          :
          :  Hamiltonian                  GFN2-xTB          :
          :  restarted?                      false          :
          :  GBSA solvation                  false          :
          :  PC potential                    false          :
          :  electronic temp.          300.0000000     K    :
          :  accuracy                    1.0000000          :
          :  -> integral cutoff          0.2500000E+02      :
          :  -> integral neglect         0.1000000E-07      :
          :  -> SCF convergence          0.1000000E-05 Eh   :
          :  -> wf. convergence          0.1000000E-03 e    :
          :  Broyden damping             0.4000000          :
          :  net charge                          0          :
          :  unpaired electrons                  0          :
          ...................................................

 iter      E             dE          RMSdq      gap      omega  full diag
   1    -19.1798234 -0.191798E+02  0.317E-05    1.95       0.0  T
   2    -19.1798234  0.111307E-10  0.341E-05    1.95     758.3  T
   3    -19.1798234 -0.135678E-10  0.214E-05    1.95    1207.4  T

   *** convergence criteria satisfied after 3 iterations ***

         #    Occupation            Energy/Eh            Energy/eV
      -------------------------------------------------------------
         1        2.0000           -0.6719195             -18.2839
       ...           ...                  ...                  ...
        12        2.0000           -0.4773703             -12.9899
        13        2.0000           -0.4452667             -12.1163
        14        2.0000           -0.4388711             -11.9423
        15        2.0000           -0.4264296             -11.6037
        16        2.0000           -0.4161374             -11.3237
        17        2.0000           -0.3958922             -10.7728
        18        2.0000           -0.3232458              -8.7960 (HOMO)
        19                         -0.2517094              -6.8494 (LUMO)
        20                         -0.1359218              -3.6986
        21                         -0.0010081              -0.0274
        22                          0.0195758               0.5327
        23                          0.0872569               2.3744
       ...                                ...                  ...
        36                          0.5009304              13.6310
      -------------------------------------------------------------
                  HL-Gap            0.0715364 Eh            1.9466 eV
             Fermi-level           -0.2874776 Eh           -7.8227 eV

 SCC (total)                   0 d,  0 h,  0 min,  0.003 sec
 SCC setup                      ...        0 min,  0.000 sec (  0.765%)
 Dispersion                     ...        0 min,  0.000 sec (  0.743%)
 classical contributions        ...        0 min,  0.000 sec (  0.368%)
 integral evaluation            ...        0 min,  0.001 sec ( 15.647%)
 iterations                     ...        0 min,  0.001 sec ( 35.729%)
 molecular gradient             ...        0 min,  0.001 sec ( 45.755%)
 printout                       ...        0 min,  0.000 sec (  0.890%)

         :::::::::::::::::::::::::::::::::::::::::::::::::::::
         ::                     SUMMARY                     ::
         :::::::::::::::::::::::::::::::::::::::::::::::::::::
         :: total energy             -18.874838811200 Eh    ::
         :: gradient norm              0.000915828611 Eh/a0 ::
         :: HOMO-LUMO gap              1.946603770813 eV    ::
         ::.................................................::
         :: SCC energy               -19.179808359631 Eh    ::
         :: -> isotropic ES            0.002673061914 Eh    ::
         :: -> anisotropic ES          0.003268124724 Eh    ::
         :: -> anisotropic XC          0.011780902500 Eh    ::
         :: -> dispersion             -0.010542041500 Eh    ::
         :: repulsion energy           0.304969548431 Eh    ::
         :: add. restraining           0.000000000000 Eh    ::
         :: total charge               0.000000000000 e     ::
         :::::::::::::::::::::::::::::::::::::::::::::::::::::

           ------------------------------------------------- 
          |                Numerical Hessian                |
           ------------------------------------------------- 
step length          :   0.00500
SCC accuracy         :   0.30000
Hessian scale factor :   1.00000
frozen atoms in %    :   0.00000    0
RMS gradient         :   0.00092
estimated CPU  time      0.01 min
estimated wall time      0.01 min

writing file <hessian>.

 projected vibrational frequencies (cm⁻¹)
eigval :       -0.00    -0.00     0.00     0.00     0.00     0.00
eigval :      310.29   412.63   430.86   536.62   562.36   659.54
eigval :      673.59   779.83   795.64   814.71   860.66   906.59
eigval :      925.50   941.91   961.65  1004.31  1038.43  1067.88
eigval :     1083.53  1109.28  1113.93  1131.98  1181.64  1214.63
eigval :     1226.25  1251.28  1289.61  1304.94  1426.69  1459.23
eigval :     1476.66  2962.29  2974.09  2992.21  2996.31  3014.96
eigval :     3017.80  3145.71  3164.84
           -------------------------------------------------
          |                Property Printout                |
           -------------------------------------------------

    * Orbital Energies and Occupations

         #    Occupation            Energy/Eh            Energy/eV
      -------------------------------------------------------------
         1        2.0000           -0.6719195             -18.2839
       ...           ...                  ...                  ...
         6        2.0000           -0.5593777             -15.2214
         7        2.0000           -0.5371550             -14.6167
         8        2.0000           -0.5263614             -14.3230
         9        2.0000           -0.4955948             -13.4858
        10        2.0000           -0.4934740             -13.4281
        11        2.0000           -0.4848655             -13.1939
        12        2.0000           -0.4773703             -12.9899
        13        2.0000           -0.4452667             -12.1163
        14        2.0000           -0.4388712             -11.9423
        15        2.0000           -0.4264296             -11.6037
        16        2.0000           -0.4161374             -11.3237
        17        2.0000           -0.3958922             -10.7728
        18        2.0000           -0.3232458              -8.7960 (HOMO)
        19                         -0.2517094              -6.8494 (LUMO)
        20                         -0.1359219              -3.6986
        21                         -0.0010082              -0.0274
        22                          0.0195758               0.5327
        23                          0.0872569               2.3744
        24                          0.0979124               2.6643
        25                          0.1480830               4.0295
        26                          0.1558349               4.2405
        27                          0.1723578               4.6901
        28                          0.1803442               4.9074
        29                          0.2166780               5.8961
       ...                                ...                  ...
        36                          0.5009304              13.6310
      -------------------------------------------------------------
                  HL-Gap            0.0715364 Eh            1.9466 eV
             Fermi-level           -0.2874776 Eh           -7.8227 eV

     #   Z          covCN         q      C6AA      α(0)
     1   6 C        3.862    -0.029    21.053     6.525
     2   6 C        3.879    -0.031    21.071     6.527
     3   6 C        3.956     0.005    20.430     6.422
     4   6 C        2.939    -0.075    29.869     8.963
     5   6 C        3.974    -0.014    20.751     6.472
     6   6 C        3.003    -0.063    29.556     8.918
     7   6 C        3.823    -0.043    21.327     6.572
     8   1 H        0.926     0.035     2.523     2.484
     9   1 H        0.927     0.038     2.478     2.462
    10   1 H        0.925     0.027     2.628     2.535
    11   1 H        0.925     0.018     2.756     2.596
    12   1 H        0.925     0.033     2.544     2.494
    13   1 H        0.924     0.019     2.749     2.593
    14   1 H        0.924     0.035     2.518     2.482
    15   1 H        0.925     0.046     2.377     2.411

 Mol. C6AA /au·bohr⁶  :       2164.607785
 Mol. C8AA /au·bohr⁸  :      51020.748116
 Mol. α(0) /au        :         70.455776


Wiberg/Mayer (AO) data.
largest (>0.10) Wiberg bond orders for each atom

 ---------------------------------------------------------------------------
     #   Z sym  total        # sym  WBO       # sym  WBO       # sym  WBO
 ---------------------------------------------------------------------------
     1   6 C    3.889 --     3 C    0.976     5 C    0.973     8 H    0.970
                             2 C    0.896
     2   6 C    3.896 --     5 C    0.989     9 H    0.966     1 C    0.896
                             3 C    0.888
     3   6 C    3.947 --     4 C    1.038     1 C    0.976    10 H    0.966
                             2 C    0.888
     4   6 C    3.932 --     6 C    1.768     3 C    1.038    11 H    0.962
     5   6 C    3.948 --     2 C    0.989     1 C    0.973    12 H    0.963
                             7 C    0.925
     6   6 C    3.943 --     4 C    1.768     7 C    1.051    13 H    0.965
     7   6 C    3.994 --     6 C    1.051    14 H    0.975    15 H    0.970
                             5 C    0.925
     8   1 H    0.999 --     1 C    0.970
     9   1 H    0.999 --     2 C    0.966
    10   1 H    0.999 --     3 C    0.966
    11   1 H    1.000 --     4 C    0.962
    12   1 H    0.999 --     5 C    0.963
    13   1 H    1.000 --     6 C    0.965
    14   1 H    0.999 --     7 C    0.975
    15   1 H    0.998 --     7 C    0.970
 ---------------------------------------------------------------------------

Topologies differ in total number of bonds
Writing topology from bond orders to xtbtopo.mol

molecular dipole:
                 x           y           z       tot (Debye)
 q only:       -0.411       0.028      -0.085
   full:       -0.817      -0.097      -0.204       2.155
molecular quadrupole (traceless):
                xx          xy          yy          xz          yz          zz
 q only:       -1.085       0.008       1.077      -0.273       0.468       0.009
  q+dip:       -2.850       0.670       1.685      -0.420       0.373       1.166
   full:       -1.963       0.590       1.428      -0.197       0.604       0.535

           -------------------------------------------------
          |                Geometry Summary                 |
           -------------------------------------------------

      molecular mass/u    :       92.1386773
   center of mass at/Å    :        0.0493675      -0.0881595       0.0178737
  moments of inertia/u·Å² :        0.1047130E+03   0.1341110E+03   0.1847786E+03
rotational constants/cm⁻¹ :        0.1609889E+00   0.1256991E+00   0.9123152E-01

 * 16 selected distances

     #   Z          #   Z                                           value/Å
     1   6 C        2   6 C                                       1.4751514
     1   6 C        3   6 C                                       1.5101211
     2   6 C        3   6 C                                       1.5372208 (max)
     3   6 C        4   6 C                                       1.4749524
Molecule has no symmetry elements
It seems to be the C1 point group
     1   6 C        5   6 C                                       1.5130263
     2   6 C        5   6 C                                       1.4973472
     4   6 C        6   6 C                                       1.3790453
     6   6 C        7   6 C                                       1.4762427
     1   6 C        8   1 H                                       1.0707905
     2   6 C        9   1 H                                       1.0688939 (min)
     3   6 C       10   1 H                                       1.0855006
     4   6 C       11   1 H                                       1.0839677
     5   6 C       12   1 H                                       1.0857035
     6   6 C       13   1 H                                       1.0904144
     7   6 C       14   1 H                                       1.0905207
     7   6 C       15   1 H                                       1.0891248

 * 2 distinct bonds (by element types)

   Z      Z             #   av. dist./Å        max./Å        min./Å
   1 H    6 C           8     1.0831145     1.0905207     1.0688939
   6 C    6 C           8     1.4828884     1.5372208     1.3790453

           -------------------------------------------------
          |               Frequency Printout                |
           -------------------------------------------------
 projected vibrational frequencies (cm⁻¹)
eigval :       -0.00    -0.00     0.00     0.00     0.00     0.00
eigval :      310.29   412.63   430.86   536.62   562.36   659.54
eigval :      673.59   779.83   795.64   814.71   860.66   906.59
eigval :      925.50   941.91   961.65  1004.31  1038.43  1067.88
eigval :     1083.53  1109.28  1113.93  1131.98  1181.64  1214.63
eigval :     1226.25  1251.28  1289.61  1304.94  1426.69  1459.23
eigval :     1476.66  2962.29  2974.09  2992.21  2996.31  3014.96
eigval :     3017.80  3145.71  3164.84
 reduced masses (amu)
   1: 10.00   2: 10.58   3: 10.73   4: 10.41   5: 10.20   6: 10.35   7:  7.58   8:  8.95
   9:  7.52  10: 10.95  11:  9.15  12: 10.33  13:  5.90  14:  2.65  15:  7.85  16:  7.83
  17:  8.53  18:  8.08  19:  4.67  20:  3.16  21:  4.89  22:  4.62  23:  5.79  24:  3.43
  25:  5.03  26:  7.49  27:  4.41  28:  6.54  29:  3.79  30:  4.53  31:  5.41  32:  4.58
  33:  9.24  34:  3.64  35: 10.34  36:  2.44  37: 10.37  38:  1.76  39:  1.74  40:  1.79
  41:  1.76  42:  1.79  43:  1.79  44:  1.85  45:  1.95
 IR intensities (km·mol⁻¹)
   1:  0.79   2:  0.74   3:  0.18   4:  0.35   5:  0.40   6:  0.09   7:  1.48   8: 10.47
   9:  4.76  10:  1.33  11:  2.61  12:  8.94  13:137.95  14:  1.50  15: 17.08  16:  6.48
  17:  2.48  18:  9.60  19:  3.09  20:  0.99  21:  4.47  22:  4.96  23:  2.53  24: 10.95
  25:  1.22  26:  0.94  27:  0.62  28:  0.90  29:  9.91  30:  1.78  31:  0.55  32:  1.66
  33:  0.72  34:  2.10  35: 18.99  36:  0.33  37: 13.12  38: 48.61  39: 65.26  40: 54.53
  41: 53.39  42: 38.98  43: 90.82  44: 38.89  45: 19.81
 Raman intensities (Ä⁴*amu⁻¹)
   1:  0.00   2:  0.00   3:  0.00   4:  0.00   5:  0.00   6:  0.00   7:  0.00   8:  0.00
   9:  0.00  10:  0.00  11:  0.00  12:  0.00  13:  0.00  14:  0.00  15:  0.00  16:  0.00
  17:  0.00  18:  0.00  19:  0.00  20:  0.00  21:  0.00  22:  0.00  23:  0.00  24:  0.00
  25:  0.00  26:  0.00  27:  0.00  28:  0.00  29:  0.00  30:  0.00  31:  0.00  32:  0.00
  33:  0.00  34:  0.00  35:  0.00  36:  0.00  37:  0.00  38:  0.00  39:  0.00  40:  0.00
  41:  0.00  42:  0.00  43:  0.00  44:  0.00  45:  0.00
 output can be read by thermo (or use thermo option).
 writing <g98.out> molden fake output.
 recommended (thermochemical) frequency scaling factor: 1.0
           -------------------------------------------------
          |             Thermodynamic Functions             |
           -------------------------------------------------

c1  symmetry found (for desy threshold:  0.10E+00) used in thermo

          ...................................................
          :                      SETUP                      :
          :.................................................:
          :  # frequencies                          39      :
Note: The following floating-point exceptions are signalling: IEEE_UNDERFLOW_FLAG
normal termination of xtb
          :  # imaginary freq.                       0      :
          :  linear?                             false      :
          :  only rotor calc.                    false      :
          :  symmetry                               c1      :
          :  rotational number                       1      :
          :  scaling factor                  1.0000000      :
          :  rotor cutoff                   50.0000000 cm⁻¹ :
          :  imag. cutoff                  -20.0000000 cm⁻¹ :
          :.................................................:

    mode    ω/cm⁻¹     T·S(HO)/kcal·mol⁻¹    T·S(FR)/kcal·mol⁻¹   T·S(vib)
   ------------------------------------------------------------------------
   ------------------------------------------------------------------------

   temp. (K)  partition function   enthalpy   heat capacity  entropy
                                   cal/mol     cal/K/mol   cal/K/mol   J/K/mol
 298.15  VIB   2.57                 1510.033     16.366      6.943
         ROT  0.123E+06              888.752      2.981     26.272
         INT  0.317E+06             2398.785     19.347     33.215
         TR   0.856E+27             1481.254      4.968     39.456
         TOT                        3880.0391    24.3147    72.6712   304.0563

       T/K    H(0)-H(T)+PV         H(T)/Eh          T*S/Eh         G(T)/Eh
   ------------------------------------------------------------------------
    298.15    0.618324E-02    0.129707E+00    0.345284E-01    0.951790E-01
   ------------------------------------------------------------------------

         :::::::::::::::::::::::::::::::::::::::::::::::::::::
         ::                  THERMODYNAMIC                  ::
         :::::::::::::::::::::::::::::::::::::::::::::::::::::
         :: total free energy         -18.779659831801 Eh   ::
         ::.................................................::
         :: total energy              -18.874838811199 Eh   ::
         :: zero point energy           0.123524173220 Eh   ::
         :: G(RRHO) w/o ZPVE           -0.028345193822 Eh   ::
         :: G(RRHO) contrib.            0.095178979398 Eh   ::
         :::::::::::::::::::::::::::::::::::::::::::::::::::::

optimized geometry written to: xtbopt.xyz


           -------------------------------------------------
          | TOTAL ENERGY              -18.874838811199 Eh   |
          | TOTAL ENTHALPY            -18.745131402029 Eh   |
          | TOTAL FREE ENERGY         -18.779659831801 Eh   |
          | GRADIENT NORM               0.000915821277 Eh/α |
          | HOMO-LUMO GAP               1.946603754998 eV   |
           -------------------------------------------------

------------------------------------------------------------------------
 * finished run on 2026/09/04 at 18:34:43.372     
------------------------------------------------------------------------
 total:
 * wall-time:     0 d,  0 h,  0 min,  0.487 sec
 *  cpu-time:     0 d,  0 h,  0 min,  0.636 sec
 * ratio c/w:     1.306 speedup
 SCF:
 * wall-time:     0 d,  0 h,  0 min,  0.007 sec
 *  cpu-time:     0 d,  0 h,  0 min,  0.009 sec
 * ratio c/w:     1.439 speedup
 ANC optimizer:
 * wall-time:     0 d,  0 h,  0 min,  0.106 sec
 *  cpu-time:     0 d,  0 h,  0 min,  0.142 sec
 * ratio c/w:     1.331 speedup
 analytical hessian:
 * wall-time:     0 d,  0 h,  0 min,  0.370 sec
 *  cpu-time:     0 d,  0 h,  0 min,  0.481 sec
 * ratio c/w:     1.300 speedup

