15
 energy: -18.874838811200 gnorm: 0.000915828611 xtb: 6.7.1 (unknown)
C           -0.51402794503106       -0.59650926878476       -1.10370504122939
C           -1.09261862872704       -0.86719308825220        0.22596953363962
C            0.30963331766750       -1.39334728036041       -0.12029438343301
C            1.21131018046017       -0.58728271614756        0.72393485117634
C           -0.90986653123478        0.55493962827456       -0.20552603553477
C            1.33322743915299        0.66260411014222        0.15412386954263
C            0.16124380133479        1.50922308782888        0.45242351438947
H           -0.80989306991819       -0.82543570086745       -2.10702380678040
H           -1.93079556107038       -1.38970090174380        0.63460026672330
H            0.40591345140168       -2.46305016528490       -0.27770181605801
H            1.05769108223844       -0.67398055830946        1.79345366632035
H           -1.81544862596021        1.08141168227139       -0.49100813734762
H            1.57186919756556        0.66152406114305       -0.90985557160109
H            0.14993593144831        2.48505975015155       -0.03424906420885
H           -0.06141803675573        1.61585632101315        1.51319850226669
