      -----------------------------------------------------------      
     |                   =====================                   |     
     |                           x T B                           |     
     |                   =====================                   |     
     |                         S. Grimme                         |     
     |          Mulliken Center for Theoretical Chemistry        |     
     |                    University of Bonn                     |     
      -----------------------------------------------------------      

   * xtb version 6.7.1 (unknown) compiled by 'runner@Mac-1732184002186.local' on 2024-11-21

   xtb is free software: you can redistribute it and/or modify it under
   the terms of the GNU Lesser General Public License as published by
   the Free Software Foundation, either version 3 of the License, or
   (at your option) any later version.
   
   xtb is distributed in the hope that it will be useful,
   but WITHOUT ANY WARRANTY; without even the implied warranty of
   MERCHANTABILITY or FITNESS FOR A PARTICULAR PURPOSE.  See the
   GNU Lesser General Public License for more details.
   
   Cite this work as:
   * C. Bannwarth, E. Caldeweyher, S. Ehlert, A. Hansen, P. Pracht,
     J. Seibert, S. Spicher, S. Grimme, WIREs Comput. Mol. Sci., 2020, 11,
     e01493. DOI: 10.1002/wcms.1493
   
   for GFN2-xTB:
   * C. Bannwarth, S. Ehlert and S. Grimme., J. Chem. Theory Comput., 2019,
     15, 1652-1671. DOI: 10.1021/acs.jctc.8b01176
   for GFN1-xTB:
   * S. Grimme, C. Bannwarth, P. Shushkov, J. Chem. Theory Comput., 2017,
     13, 1989-2009. DOI: 10.1021/acs.jctc.7b00118
   for GFN0-xTB:
   * P. Pracht, E. Caldeweyher, S. Ehlert, S. Grimme, ChemRxiv, 2019, preprint.
     DOI: 10.26434/chemrxiv.8326202.v1
   for GFN-FF:
   * S. Spicher and S. Grimme, Angew. Chem. Int. Ed., 2020, 59, 15665-15673.
     DOI: 10.1002/anie.202004239
   
   for ALPB and GBSA implicit solvation:
   * S. Ehlert, M. Stahn, S. Spicher, S. Grimme, J. Chem. Theory Comput.,
     2021, 17, 4250-4261. DOI: 10.1021/acs.jctc.1c00471
   
   for ddCOSMO and CPCM-X implicit solvation:
   * M. Stahn, S. Ehlert, S. Grimme, J. Phys. Chem. A,
     2023, XX, XXXX-XXXX. DOI: 10.1021/acs.jpca.3c04382
   
   for DFT-D4:
   * E. Caldeweyher, C. Bannwarth and S. Grimme, J. Chem. Phys., 2017,
     147, 034112. DOI: 10.1063/1.4993215
   * E. Caldeweyher, S. Ehlert, A. Hansen, H. Neugebauer, S. Spicher,
     C. Bannwarth and S. Grimme, J. Chem. Phys., 2019, 150, 154122.
     DOI: 10.1063/1.5090222
   * E. Caldeweyher, J.-M. Mewes, S. Ehlert and S. Grimme, Phys. Chem. Chem. Phys.
     2020, 22, 8499-8512. DOI: 10.1039/D0CP00502A
   
   for sTDA-xTB:
   * S. Grimme and C. Bannwarth, J. Chem. Phys., 2016, 145, 054103.
     DOI: 10.1063/1.4959605
   
   in the mass-spec context:
   * V. Asgeirsson, C. Bauer and S. Grimme, Chem. Sci., 2017, 8, 4879.
     DOI: 10.1039/c7sc00601b
   * J. Koopman and S. Grimme, ACS Omega 2019, 4, 12, 15120-15133.
     DOI: 10.1021/acsomega.9b02011
   
   for metadynamics refer to:
   * S. Grimme, J. Chem. Theory Comput., 2019, 155, 2847-2862
     DOI: 10.1021/acs.jctc.9b00143
   
   for SPH calculations refer to:
   * S. Spicher and S. Grimme, J. Chem. Theory Comput., 2021, 17, 1701-1714
     DOI: 10.1021/acs.jctc.0c01306
   
   for ONIOM refer to:
   * C. Plett, A. Katbashev, S. Ehlert, S. Grimme, M. Bursch,
     Phys. Chem. Chem. Phys., 2023, 25, 17860-17868. DOI: 10.1039/D3CP02178E
   
   for DIPRO refer to:
   * J. Kohn, N. Gildemeister, S. Grimme, D. Fazzi, A. Hansen,
     J. Chem. Phys., 2023, just accepted.
   
   for PTB refer to:
   * S. Grimme, M. Mueller, A. Hansen, J. Chem. Phys., 2023, 158, 124111.
     DOI: 10.1063/5.0137838
   
   with help from (in alphabetical order)
   P. Atkinson, C. Bannwarth, F. Bohle, G. Brandenburg, E. Caldeweyher
   M. Checinski, S. Dohm, S. Ehlert, S. Ehrlich, I. Gerasimov, C. Hölzer
   A. Katbashev, J. Kohn, J. Koopman, C. Lavigne, S. Lehtola, F. März, M. Müller,
   F. Musil, H. Neugebauer, J. Pisarek, C. Plett, P. Pracht, F. Pultar,
   J. Seibert, P. Shushkov, S. Spicher, M. Stahn, M. Steiner, T. Strunk,
   J. Stückrath, T. Rose, and J. Unsleber
   
 * started run on 2026/08/28 at 14:07:44.764     
   ID    Z sym.   atoms
    1    6 C      1, 2
    2    8 O      3
    3    1 H      4-9

           -------------------------------------------------
          |                Calculation Setup                |
           -------------------------------------------------

          program call               : /opt/homebrew/bin/xtb temp_frame_opt.xyz --chrg 0 --uhf 0 --gfn 2 --acc 1.0 --etemp 300.0 --ohess normal --input control.txt
          coordinate file            : temp_frame_opt.xyz
          omp threads                :                    10


           -------------------------------------------------
          |                 G F N 2 - x T B                 |
           -------------------------------------------------

        Reference                      10.1021/acs.jctc.8b01176
      * Hamiltonian:
        H0-scaling (s, p, d)           1.850000    2.230000    2.230000
        zeta-weighting                 0.500000
      * Dispersion:
        s8                             2.700000
        a1                             0.520000
        a2                             5.000000
        s9                             5.000000
      * Repulsion:
        kExp                           1.500000    1.000000
        rExp                           1.000000
      * Coulomb:
        alpha                          2.000000
        third order                    shell-resolved
        anisotropic                    true
        a3                             3.000000
        a5                             4.000000
        cn-shift                       1.200000
        cn-exp                         4.000000
        max-rad                        5.000000

q/qsh data taken from xtbrestart
CAMM data taken from xtbrestart

          ...................................................
          :                      SETUP                      :
          :.................................................:
          :  # basis functions                  18          :
          :  # atomic orbitals                  18          :
          :  # shells                           12          :
          :  # electrons                        20          :
          :  max. iterations                   250          :
          :  Hamiltonian                  GFN2-xTB          :
          :  restarted?                       true          :
          :  GBSA solvation                  false          :
          :  PC potential                    false          :
          :  electronic temp.          300.0000000     K    :
          :  accuracy                    1.0000000          :
          :  -> integral cutoff          0.2500000E+02      :
          :  -> integral neglect         0.1000000E-07      :
          :  -> SCF convergence          0.1000000E-05 Eh   :
          :  -> wf. convergence          0.1000000E-03 e    :
          :  Broyden damping             0.4000000          :
          :  net charge                          0          :
          :  unpaired electrons                  0          :
          ...................................................

 iter      E             dE          RMSdq      gap      omega  full diag
   1    -11.4767012 -0.114767E+02  0.249E+00    7.68       0.0  T
   2    -11.4785327 -0.183148E-02  0.151E+00    7.65       1.0  T
   3    -11.4777956  0.737108E-03  0.544E-01    7.82       1.0  T
   4    -11.4793806 -0.158506E-02  0.154E-01    7.79       1.0  T
   5    -11.4793931 -0.125056E-04  0.455E-02    7.80       1.0  T
   6    -11.4793947 -0.155605E-05  0.871E-03    7.79       3.8  T
   7    -11.4793947 -0.425870E-07  0.346E-03    7.79       9.6  T
   8    -11.4793947 -0.933628E-08  0.669E-04    7.79      49.8  T
   9    -11.4793947 -0.204199E-09  0.186E-04    7.79     179.5  T

   *** convergence criteria satisfied after 9 iterations ***

         #    Occupation            Energy/Eh            Energy/eV
      -------------------------------------------------------------
         1        2.0000           -0.6829332             -18.5836
       ...           ...                  ...                  ...
         4        2.0000           -0.5636497             -15.3377
         5        2.0000           -0.5220335             -14.2053
         6        2.0000           -0.4991760             -13.5833
         7        2.0000           -0.4793198             -13.0430
         8        2.0000           -0.4612172             -12.5504
         9        2.0000           -0.4243625             -11.5475
        10        2.0000           -0.4106197             -11.1735 (HOMO)
        11                         -0.1243634              -3.3841 (LUMO)
        12                          0.0529308               1.4403
        13                          0.1155393               3.1440
        14                          0.1388799               3.7791
        15                          0.1903998               5.1810
       ...                                ...                  ...
        18                          0.5663715              15.4118
      -------------------------------------------------------------
                  HL-Gap            0.2862564 Eh            7.7894 eV
             Fermi-level           -0.2674916 Eh           -7.2788 eV

 SCC (total)                   0 d,  0 h,  0 min,  0.003 sec
 SCC setup                      ...        0 min,  0.000 sec (  3.047%)
 Dispersion                     ...        0 min,  0.000 sec (  4.229%)
 classical contributions        ...        0 min,  0.000 sec (  2.162%)
 integral evaluation            ...        0 min,  0.000 sec (  7.022%)
 iterations                     ...        0 min,  0.002 sec ( 60.296%)
 molecular gradient             ...        0 min,  0.001 sec ( 21.415%)
 printout                       ...        0 min,  0.000 sec (  1.243%)

         :::::::::::::::::::::::::::::::::::::::::::::::::::::
         ::                     SUMMARY                     ::
         :::::::::::::::::::::::::::::::::::::::::::::::::::::
         :: total energy             -11.335195700934 Eh    ::
         :: gradient norm              0.227087973057 Eh/a0 ::
         :: HOMO-LUMO gap              7.789432488893 eV    ::
         ::.................................................::
         :: SCC energy               -11.479394221904 Eh    ::
         :: -> isotropic ES            0.026132973361 Eh    ::
         :: -> anisotropic ES          0.002068382662 Eh    ::
         :: -> anisotropic XC          0.003503635719 Eh    ::
         :: -> dispersion             -0.002747487536 Eh    ::
         :: repulsion energy           0.144198520971 Eh    ::
         :: add. restraining           0.000000000000 Eh    ::
         :: total charge               0.000000000000 e     ::
         :::::::::::::::::::::::::::::::::::::::::::::::::::::

      ----------------------------------------------------------- 
     |                       L-ANC optimizer                     |
      ----------------------------------------------------------- 
          low memory version by Sebastian Ehlert

          ...................................................
          :                      SETUP                      :
          :.................................................:
          :   energy convergence        0.5000000E-05 Eh    :
          :   grad. convergence         0.1000000E-02 Eh/a0 :
          :   optimization log               true           :
          :   writing optlog all                1     steps :
          :   Hessian reset                    25     steps :
          :   maximium step len.        1.0000000     a0    :
          :   LBFGS images                     25           :
          ...................................................
 * calculating model hessian...
Using Lindh-Hessian (1995)
 Shifting diagonal of input Hessian by    1.0000000000000000E-002
 Lowest  eigenvalues of input Hessian
    0.000000    0.000000    0.000000    0.000000    0.000000    0.000000
    0.017010    0.021293    0.024296    0.032382    0.038542    0.042383
    0.047123    0.078759    0.128887    0.139447    0.186867    0.203902
 Highest eigenvalues
    0.718472    1.042051    1.172855    1.323566    1.413273    1.706948


........................................................................
.............................. CYCLE    1 ..............................
........................................................................

 iter      E             dE          RMSdq      gap      omega  full diag
   1    -11.4982116 -0.114982E+02  0.761E-01   11.82       0.0  T
   2    -11.4986768 -0.465118E-03  0.454E-01   11.74       1.0  T
   3    -11.4986749  0.185059E-05  0.132E-01   11.76       1.0  T
   4    -11.4986973 -0.224312E-04  0.215E-02   11.77       1.6  T
   5    -11.4986988 -0.143025E-05  0.779E-03   11.77       4.3  T
   6    -11.4986988 -0.248960E-07  0.250E-03   11.77      13.3  T
   7    -11.4986988 -0.367562E-08  0.419E-04   11.77      79.6  T
   8    -11.4986988 -0.101235E-09  0.104E-04   11.77     320.4  T
     SCC iter.                  ...        0 min,  0.001 sec
     gradient                   ...        0 min,  0.001 sec
 * total energy  :   -11.3847038 Eh     change       -0.4950814E-01 Eh
   gradient norm :     0.0790452 Eh/a0  converged?    E=F G=F D=F
   step length   :     0.4287329 a0

........................................................................
.............................. CYCLE    2 ..............................
........................................................................

 iter      E             dE          RMSdq      gap      omega  full diag
   1    -11.5091290 -0.115091E+02  0.694E-01   12.19       0.0  T
   2    -11.5093530 -0.224048E-03  0.429E-01   12.17       1.0  T
   3    -11.5093595 -0.641718E-05  0.716E-02   12.18       1.0  T
   4    -11.5093649 -0.546143E-05  0.148E-02   12.18       2.3  T
   5    -11.5093650 -0.115315E-06  0.550E-03   12.18       6.1  T
   6    -11.5093650 -0.602440E-08  0.144E-03   12.18      23.1  T
   7    -11.5093650 -0.124415E-08  0.241E-04   12.18     138.1  T
   8    -11.5093650 -0.708358E-10  0.844E-05   12.18     394.9  T
     SCC iter.                  ...        0 min,  0.001 sec
     gradient                   ...        0 min,  0.000 sec
 * total energy  :   -11.3799644 Eh     change        0.4739482E-02 Eh
   gradient norm :     0.1116047 Eh/a0  converged?    E=F G=F D=F
   step length   :     0.5271825 a0

........................................................................
.............................. CYCLE    3 ..............................
........................................................................

 iter      E             dE          RMSdq      gap      omega  full diag
   1    -11.5081423 -0.115081E+02  0.638E-01   12.63       0.0  T
   2    -11.5082061 -0.637650E-04  0.384E-01   12.64       1.0  T
   3    -11.5082061 -0.798160E-07  0.377E-02   12.63       1.0  T
   4    -11.5082124 -0.624279E-05  0.102E-02   12.64       3.3  T
   5    -11.5082125 -0.904569E-07  0.411E-03   12.64       8.1  T
   6    -11.5082125 -0.352874E-08  0.101E-03   12.64      33.0  T
   7    -11.5082125 -0.551566E-09  0.170E-04   12.64     196.1  T
   8    -11.5082125 -0.319336E-10  0.373E-05   12.64     893.6  T
     SCC iter.                  ...        0 min,  0.001 sec
     gradient                   ...        0 min,  0.000 sec
 * total energy  :   -11.3905794 Eh     change       -0.1061499E-01 Eh
   gradient norm :     0.0206690 Eh/a0  converged?    E=F G=F D=F
   step length   :     0.4170221 a0

........................................................................
.............................. CYCLE    4 ..............................
........................................................................

 iter      E             dE          RMSdq      gap      omega  full diag
   1    -11.5104010 -0.115104E+02  0.281E-01   12.51       0.0  T
   2    -11.5104053 -0.427840E-05  0.164E-01   12.51       1.0  T
   3    -11.5104057 -0.427270E-06  0.796E-03   12.51       4.2  T
   4    -11.5104059 -0.149843E-06  0.275E-03   12.51      12.1  T
   5    -11.5104059 -0.498071E-08  0.132E-03   12.51      25.3  T
   6    -11.5104059 -0.750068E-09  0.305E-04   12.51     109.3  T
   7    -11.5104059 -0.669083E-10  0.741E-05   12.51     449.8  T
     SCC iter.                  ...        0 min,  0.001 sec
     gradient                   ...        0 min,  0.000 sec
 * total energy  :   -11.3911544 Eh     change       -0.5750248E-03 Eh
   gradient norm :     0.0202186 Eh/a0  converged?    E=F G=F D=F
   step length   :     0.1798962 a0

........................................................................
.............................. CYCLE    5 ..............................
........................................................................

 iter      E             dE          RMSdq      gap      omega  full diag
   1    -11.5128793 -0.115129E+02  0.124E-01   12.55       0.0  T
   2    -11.5128817 -0.237132E-05  0.747E-02   12.55       1.0  T
   3    -11.5128817  0.576665E-08  0.668E-03   12.55       5.0  T
   4    -11.5128818 -0.145736E-06  0.154E-03   12.55      21.7  T
   5    -11.5128818 -0.179918E-08  0.832E-04   12.55      40.1  T
   6    -11.5128818 -0.148875E-09  0.901E-05   12.55     370.0  T
     SCC iter.                  ...        0 min,  0.001 sec
     gradient                   ...        0 min,  0.000 sec
 * total energy  :   -11.3917043 Eh     change       -0.5498741E-03 Eh
   gradient norm :     0.0078782 Eh/a0  converged?    E=F G=F D=F
   step length   :     0.0678061 a0

........................................................................
.............................. CYCLE    6 ..............................
........................................................................

 iter      E             dE          RMSdq      gap      omega  full diag
   1    -11.5127271 -0.115127E+02  0.626E-02   12.53       0.0  T
   2    -11.5127272 -0.109246E-06  0.366E-02   12.53       1.0  T
   3    -11.5127272 -0.387040E-07  0.136E-03   12.53      24.5  T
   4    -11.5127272 -0.335003E-08  0.717E-04   12.53      46.5  T
   5    -11.5127272 -0.132346E-09  0.161E-04   12.53     206.5  T
     SCC iter.                  ...        0 min,  0.001 sec
     gradient                   ...        0 min,  0.000 sec
 * total energy  :   -11.3918202 Eh     change       -0.1159233E-03 Eh
   gradient norm :     0.0041057 Eh/a0  converged?    E=F G=F D=F
   step length   :     0.0378985 a0

........................................................................
.............................. CYCLE    7 ..............................
........................................................................

 iter      E             dE          RMSdq      gap      omega  full diag
   1    -11.5130951 -0.115131E+02  0.446E-02   12.55       0.0  T
   2    -11.5130953 -0.190867E-06  0.263E-02   12.55       1.3  T
   3    -11.5130954 -0.462394E-07  0.210E-03   12.55      15.8  T
   4    -11.5130954 -0.197758E-08  0.885E-04   12.55      37.7  T
   5    -11.5130954 -0.406290E-09  0.157E-04   12.55     212.1  T
     SCC iter.                  ...        0 min,  0.001 sec
     gradient                   ...        0 min,  0.000 sec
 * total energy  :   -11.3918613 Eh     change       -0.4114092E-04 Eh
   gradient norm :     0.0016446 Eh/a0  converged?    E=F G=F D=F
   step length   :     0.0410710 a0

........................................................................
.............................. CYCLE    8 ..............................
........................................................................

 iter      E             dE          RMSdq      gap      omega  full diag
   1    -11.5130028 -0.115130E+02  0.174E-02   12.55       0.0  T
   2    -11.5130028 -0.659385E-07  0.103E-02   12.55       3.2  T
   3    -11.5130028 -0.323128E-09  0.129E-03   12.55      25.9  T
   4    -11.5130028 -0.395613E-08  0.256E-04   12.55     130.1  T
   5    -11.5130028 -0.653984E-10  0.123E-04   12.55     271.3  T
     SCC iter.                  ...        0 min,  0.001 sec
     gradient                   ...        0 min,  0.000 sec
 * total energy  :   -11.3918648 Eh     change       -0.3460038E-05 Eh
   gradient norm :     0.0010876 Eh/a0  converged?    E=T G=F D=F
   step length   :     0.0148691 a0

........................................................................
.............................. CYCLE    9 ..............................
........................................................................

 iter      E             dE          RMSdq      gap      omega  full diag
   1    -11.5127997 -0.115128E+02  0.112E-02   12.55       0.0  T
   2    -11.5127998 -0.247903E-07  0.650E-03   12.55       5.1  T
   3    -11.5127998 -0.163053E-08  0.698E-04   12.55      47.7  T
   4    -11.5127998 -0.162100E-09  0.189E-04   12.55     176.8  T
     SCC iter.                  ...        0 min,  0.001 sec
     gradient                   ...        0 min,  0.000 sec
 * total energy  :   -11.3918660 Eh     change       -0.1174335E-05 Eh
   gradient norm :     0.0008180 Eh/a0  converged?    E=T G=T D=F
   step length   :     0.0099326 a0

   *** GEOMETRY OPTIMIZATION CONVERGED AFTER 9 CYCLES ***

------------------------------------------------------------------------
 total energy gain   :        -0.0566702 Eh      -35.5611 kcal/mol
 total RMSD          :         0.1769754 a0        0.0937 Å
 total power (kW/mol):       -16.5319688 (step)-7689.3620 (real)
------------------------------------------------------------------------

 L-ANCopt (total)              0 d,  0 h,  0 min,  0.019 sec
 setup                          ...        0 min,  0.000 sec (  1.932%)
 model hessian                  ...        0 min,  0.000 sec (  2.536%)
 ANC generation                 ...        0 min,  0.001 sec (  5.525%)
 coordinate transformation      ...        0 min,  0.000 sec (  0.074%)
 Rational function              ...        0 min,  0.000 sec (  1.431%)
 singlepoint calculation        ...        0 min,  0.017 sec ( 87.089%)
 optimization log               ...        0 min,  0.000 sec (  0.810%)
 hessian update                 ...        0 min,  0.000 sec (  0.064%)

================
 final structure:
================
9
 xtb: 6.7.1 (unknown)
C            1.20524931624279       -0.42189566817029        0.01774814679028
C            0.02461394030376        0.53684685741743        0.00923411440142
O           -1.16683263403141       -0.22203297569095        0.00620624187735
H           -1.92291842192888        0.37277647475601       -0.00669323911173
H            0.06275841964379        1.18276624017858        0.89892766991500
H            0.07020815172158        1.17885269380998       -0.88286290057933
H            2.13925109915143        0.13321283097483        0.01575139058047
H            1.16252122863120       -1.05127410294089        0.90239725645386
H            1.16482694422922       -1.06096840936604       -0.86070846096549

 Bond Distances (Angstroems)
 ---------------------------
C1-C2=1.5209         C1-H7=1.0865         C1-H8=1.0865         C1-H9=1.0871         C2-C1=1.5209         C2-O3=1.4126         
C2-H5=1.1001         C2-H6=1.1000         O3-C2=1.4126         O3-H4=0.9621         H4-O3=0.9621         H5-C2=1.1001         
H6-C2=1.1000         H7-C1=1.0865         H8-C1=1.0865         H9-C1=1.0871         
 C  H  Rav=1.0921 sigma=0.0066  Rmin=1.0865  Rmax=1.1001     5
 C  C  Rav=1.5209 sigma=0.0000  Rmin=1.5209  Rmax=1.5209     1
 O  H  Rav=0.9621 sigma=0.0000  Rmin=0.9621  Rmax=0.9621     1
 O  C  Rav=1.4126 sigma=0.0000  Rmin=1.4126  Rmax=1.4126     1

 selected bond angles (degree)
 --------------------
H7-C1-C2=110.20                H8-C1-C2=109.83                H8-C1-H7=109.34                H9-C1-C2=109.71                
H9-C1-H7=109.32                H9-C1-H8=108.42                O3-C2-C1=108.43                H5-C2-C1=109.80                
H5-C2-O3=110.27                H6-C2-C1=109.89                H6-C2-O3=110.29                H6-C2-H5=108.16                
H4-O3-C2=109.31                

 selected dihedral angles (degree)
 ---------------------------------
O3-C2-C1-H7=179.75            O3-C2-C1-H8=300.27            O3-C2-C1-H9= 59.34            H5-C2-C1-H7=300.28            
H5-C2-C1-H8= 60.80            H5-C2-C1-H9=179.87            H6-C2-C1-H7= 59.13            H6-C2-C1-H8=179.65            
H6-C2-C1-H9=298.72            H4-O3-C2-C1=180.47            H4-O3-C2-H5= 60.24            H4-O3-C2-H6=300.84            
           -------------------------------------------------
          |                Final Singlepoint                |
           -------------------------------------------------

          ...................................................
          :                      SETUP                      :
          :.................................................:
          :  # basis functions                  18          :
          :  # atomic orbitals                  18          :
          :  # shells                           12          :
          :  # electrons                        20          :
          :  max. iterations                   250          :
          :  Hamiltonian                  GFN2-xTB          :
          :  restarted?                      false          :
          :  GBSA solvation                  false          :
          :  PC potential                    false          :
          :  electronic temp.          300.0000000     K    :
          :  accuracy                    1.0000000          :
          :  -> integral cutoff          0.2500000E+02      :
          :  -> integral neglect         0.1000000E-07      :
          :  -> SCF convergence          0.1000000E-05 Eh   :
          :  -> wf. convergence          0.1000000E-03 e    :
          :  Broyden damping             0.4000000          :
          :  net charge                          0          :
          :  unpaired electrons                  0          :
          ...................................................

 iter      E             dE          RMSdq      gap      omega  full diag
   1    -11.5127998 -0.115128E+02  0.732E-05   12.55       0.0  T
   2    -11.5127998 -0.410338E-11  0.458E-05   12.55     727.5  T
   3    -11.5127998 -0.511591E-12  0.162E-05   12.55    2055.1  T

   *** convergence criteria satisfied after 3 iterations ***

         #    Occupation            Energy/Eh            Energy/eV
      -------------------------------------------------------------
         1        2.0000           -0.6852182             -18.6457
       ...           ...                  ...                  ...
         4        2.0000           -0.5670777             -15.4310
         5        2.0000           -0.5305775             -14.4377
         6        2.0000           -0.5061280             -13.7724
         7        2.0000           -0.4657403             -12.6734
         8        2.0000           -0.4594859             -12.5032
         9        2.0000           -0.4503590             -12.2549
        10        2.0000           -0.4079366             -11.1005 (HOMO)
        11                          0.0533448               1.4516 (LUMO)
        12                          0.1260421               3.4298
        13                          0.1321992               3.5973
        14                          0.1525310               4.1506
        15                          0.1817358               4.9453
       ...                                ...                  ...
        18                          0.2704224               7.3586
      -------------------------------------------------------------
                  HL-Gap            0.4612814 Eh           12.5521 eV
             Fermi-level           -0.1772959 Eh           -4.8245 eV

 SCC (total)                   0 d,  0 h,  0 min,  0.001 sec
 SCC setup                      ...        0 min,  0.000 sec (  3.479%)
 Dispersion                     ...        0 min,  0.000 sec (  8.001%)
 classical contributions        ...        0 min,  0.000 sec (  3.921%)
 integral evaluation            ...        0 min,  0.000 sec ( 11.427%)
 iterations                     ...        0 min,  0.001 sec ( 38.078%)
 molecular gradient             ...        0 min,  0.000 sec ( 33.186%)
 printout                       ...        0 min,  0.000 sec (  1.554%)

         :::::::::::::::::::::::::::::::::::::::::::::::::::::
         ::                     SUMMARY                     ::
         :::::::::::::::::::::::::::::::::::::::::::::::::::::
         :: total energy             -11.391865950348 Eh    ::
         :: gradient norm              0.000818865757 Eh/a0 ::
         :: HOMO-LUMO gap             12.552105481303 eV    ::
         ::.................................................::
         :: SCC energy               -11.512799307280 Eh    ::
         :: -> isotropic ES            0.025654924205 Eh    ::
         :: -> anisotropic ES          0.002873380153 Eh    ::
         :: -> anisotropic XC          0.002104471922 Eh    ::
         :: -> dispersion             -0.002776479164 Eh    ::
         :: repulsion energy           0.120933356933 Eh    ::
         :: add. restraining           0.000000000000 Eh    ::
         :: total charge               0.000000000000 e     ::
         :::::::::::::::::::::::::::::::::::::::::::::::::::::

           ------------------------------------------------- 
          |                Numerical Hessian                |
           ------------------------------------------------- 
step length          :   0.00500
SCC accuracy         :   0.30000
Hessian scale factor :   1.00000
frozen atoms in %    :   0.00000    0
RMS gradient         :   0.00082
estimated CPU  time      0.00 min
estimated wall time      0.00 min

writing file <hessian>.

 projected vibrational frequencies (cm⁻¹)
eigval :       -0.00    -0.00    -0.00    -0.00     0.00     0.00
eigval :      204.04   293.00   394.36   837.71   930.33  1039.87
eigval :     1128.07  1152.18  1239.59  1264.95  1365.62  1405.60
eigval :     1474.83  1493.73  1496.23  2854.14  2887.29  3044.49
eigval :     3046.13  3052.50  3569.23
           -------------------------------------------------
          |                Property Printout                |
           -------------------------------------------------

    * Orbital Energies and Occupations

         #    Occupation            Energy/Eh            Energy/eV
      -------------------------------------------------------------
         1        2.0000           -0.6852183             -18.6457
         2        2.0000           -0.6262352             -17.0407
         3        2.0000           -0.5794935             -15.7688
         4        2.0000           -0.5670777             -15.4310
         5        2.0000           -0.5305775             -14.4377
         6        2.0000           -0.5061281             -13.7724
         7        2.0000           -0.4657403             -12.6734
         8        2.0000           -0.4594860             -12.5032
         9        2.0000           -0.4503591             -12.2549
        10        2.0000           -0.4079367             -11.1005 (HOMO)
        11                          0.0533446               1.4516 (LUMO)
        12                          0.1260420               3.4298
        13                          0.1321991               3.5973
        14                          0.1525310               4.1506
        15                          0.1817358               4.9453
        16                          0.2121697               5.7734
        17                          0.2641416               7.1877
        18                          0.2704224               7.3586
      -------------------------------------------------------------
                  HL-Gap            0.4612813 Eh           12.5521 eV
             Fermi-level           -0.1772960 Eh           -4.8245 eV

     #   Z          covCN         q      C6AA      α(0)
     1   6 C        3.751    -0.110    22.675     6.791
     2   6 C        3.672     0.092    19.279     6.293
     3   8 O        1.656    -0.442    21.674     6.285
     4   1 H        0.805     0.283     0.776     1.383
     5   1 H        0.923     0.015     2.816     2.624
     6   1 H        0.923     0.015     2.817     2.625
     7   1 H        0.925     0.039     2.462     2.454
     8   1 H        0.925     0.054     2.265     2.353
     9   1 H        0.925     0.054     2.265     2.354

 Mol. C6AA /au·bohr⁶  :        509.110770
 Mol. C8AA /au·bohr⁸  :      10109.838143
 Mol. α(0) /au        :         33.162072


Wiberg/Mayer (AO) data.
largest (>0.10) Wiberg bond orders for each atom

 ---------------------------------------------------------------------------
     #   Z sym  total        # sym  WBO       # sym  WBO       # sym  WBO
 ---------------------------------------------------------------------------
     1   6 C    3.994 --     2 C    1.018     7 H    0.986     8 H    0.986
                             9 H    0.986
     2   6 C    3.958 --     1 C    1.018     3 O    0.994     6 H    0.973
                             5 H    0.973
     3   8 O    1.951 --     2 C    0.994     4 H    0.907
     4   1 H    0.920 --     3 O    0.907
     5   1 H    1.000 --     2 C    0.973
     6   1 H    1.000 --     2 C    0.973
     7   1 H    0.998 --     1 C    0.986
     8   1 H    0.997 --     1 C    0.986
     9   1 H    0.997 --     1 C    0.986
 ---------------------------------------------------------------------------

Topologies differ in total number of bonds
Writing topology from bond orders to xtbtopo.mol

molecular dipole:
                 x           y           z       tot (Debye)
 q only:        0.101       0.424      -0.005
   full:        0.027       0.677      -0.008       1.723
molecular quadrupole (traceless):
                xx          xy          yy          xz          yz          zz
 q only:        1.649      -2.036      -0.612       0.045      -0.001      -1.037
  q+dip:        1.067      -2.986      -0.834       0.050       0.001      -0.232
   full:        1.679      -2.935      -0.798       0.056      -0.001      -0.881

           -------------------------------------------------
          |                Geometry Summary                 |
           -------------------------------------------------

      molecular mass/u    :       46.0685212
   center of mass at/Å    :       -0.0260301      -0.0306147       0.0106520
  moments of inertia/u·Å² :        0.1419131E+02   0.5399057E+02   0.6184839E+02
rotational constants/cm⁻¹ :        0.1187884E+01   0.3122329E+00   0.2725638E+00

 * 8 selected distances

     #   Z          #   Z                                           value/Å
     1   6 C        2   6 C                                       1.5209076 (max)
     2   6 C        3   8 O                                       1.4126051
     3   8 O        4   1 H                                       0.9620970 (min)
     2   6 C        5   1 H                                       1.1001008
     2   6 C        6   1 H                                       1.1000398
     1   6 C        7   1 H                                       1.0865123
     1   6 C        8   1 H                                       1.0865299
Molecule has the following symmetry elements: (sigma) 
It seems to be the Cs point group
     1   6 C        9   1 H                                       1.0870760

 * 4 distinct bonds (by element types)

   Z      Z             #   av. dist./Å        max./Å        min./Å
   1 H    6 C           5     1.0920517     1.1001008     1.0865123
   6 C    6 C           1     1.5209076     1.5209076     1.5209076
   1 H    8 O           1     0.9620970     0.9620970     0.9620970
   6 C    8 O           1     1.4126051     1.4126051     1.4126051

           -------------------------------------------------
          |               Frequency Printout                |
           -------------------------------------------------
 projected vibrational frequencies (cm⁻¹)
eigval :       -0.00    -0.00    -0.00    -0.00     0.00     0.00
eigval :      204.04   293.00   394.36   837.71   930.33  1039.87
eigval :     1128.07  1152.18  1239.59  1264.95  1365.62  1405.60
eigval :     1474.83  1493.73  1496.23  2854.14  2887.29  3044.49
eigval :     3046.13  3052.50  3569.23
 reduced masses (amu)
   1:  6.64   2: 10.46   3: 12.25   4: 12.93   5:  9.40   6: 11.41   7:  2.68   8:  2.01
   9:  9.99  10:  1.97  11:  8.02  12:  6.77  13:  9.63  14:  5.10  15:  3.98  16:  2.13
  17:  3.81  18:  3.65  19:  1.53  20:  1.75  21:  1.65  22:  1.98  23:  1.42  24:  1.51
  25:  1.96  26:  1.70  27:  1.87
 IR intensities (km·mol⁻¹)
   1:  6.54   2:  1.06   3:  0.82   4:  0.94   5:  1.20   6:  0.28   7:  7.06   8:155.82
   9: 12.34  10:  1.38  11:  9.21  12: 27.75  13: 51.86  14: 15.21  15:106.87  16:  0.73
  17:  9.87  18: 11.01  19:  2.05  20:  5.45  21:  1.40  22: 87.46  23: 70.40  24: 23.77
  25: 31.55  26: 25.43  27:  6.43
 Raman intensities (Ä⁴*amu⁻¹)
   1:  0.00   2:  0.00   3:  0.00   4:  0.00   5:  0.00   6:  0.00   7:  0.00   8:  0.00
   9:  0.00  10:  0.00  11:  0.00  12:  0.00  13:  0.00  14:  0.00  15:  0.00  16:  0.00
  17:  0.00  18:  0.00  19:  0.00  20:  0.00  21:  0.00  22:  0.00  23:  0.00  24:  0.00
  25:  0.00  26:  0.00  27:  0.00
 output can be read by thermo (or use thermo option).
 writing <g98.out> molden fake output.
 recommended (thermochemical) frequency scaling factor: 1.0
           -------------------------------------------------
          |             Thermodynamic Functions             |
           -------------------------------------------------

cs  symmetry found (for desy threshold:  0.10E+00) used in thermo

          ...................................................
          :                      SETUP                      :
          :.................................................:
          :  # frequencies                          21      :
          :  # imaginary freq.                       0      :
          :  linear?                             false      :
          :  only rotor calc.                    false      :
          :  symmetry                               cs      :
          :  rotational number                       1      :
          :  scaling factor                  1.0000000      :
          :  rotor cutoff                   50.0000000 cm⁻¹ :
          :  imag. cutoff                  -20.0000000 cm⁻¹ :
          :.................................................:

    mode    ω/cm⁻¹     T·S(HO)/kcal·mol⁻¹    T·S(FR)/kcal·mol⁻¹   T·S(vib)
   ------------------------------------------------------------------------
       1    204.04    -0.62502 ( 99.64%)    -0.63938 (  0.36%)    -0.62507
       2    293.00    -0.43427 ( 99.92%)    -0.53235 (  0.08%)    -0.43435
   ------------------------------------------------------------------------

   temp. (K)  partition function   enthalpy   heat capacity  entropy
                                   cal/mol     cal/K/mol   cal/K/mol   J/K/mol
 298.15  VIB   2.61                  970.976      7.686      5.167
         ROT  0.166E+05              888.752      2.981     22.295
         INT  0.435E+05             1859.728     10.666     27.462
         TR   0.303E+27             1481.254      4.968     37.391
         TOT                        3340.9819    15.6346    64.8532   271.3456

       T/K    H(0)-H(T)+PV         H(T)/Eh          T*S/Eh         G(T)/Eh
normal termination of xtb
   ------------------------------------------------------------------------
    298.15    0.532419E-02    0.831781E-01    0.308138E-01    0.523642E-01
   ------------------------------------------------------------------------

         :::::::::::::::::::::::::::::::::::::::::::::::::::::
         ::                  THERMODYNAMIC                  ::
         :::::::::::::::::::::::::::::::::::::::::::::::::::::
         :: total free energy         -11.339501726262 Eh   ::
         ::.................................................::
         :: total energy              -11.391865950348 Eh   ::
         :: zero point energy           0.077853859699 Eh   ::
         :: G(RRHO) w/o ZPVE           -0.025489635613 Eh   ::
         :: G(RRHO) contrib.            0.052364224086 Eh   ::
         :::::::::::::::::::::::::::::::::::::::::::::::::::::

optimized geometry written to: xtbopt.xyz


           -------------------------------------------------
          | TOTAL ENERGY              -11.391865950348 Eh   |
          | TOTAL ENTHALPY            -11.308687897153 Eh   |
          | TOTAL FREE ENERGY         -11.339501726262 Eh   |
          | GRADIENT NORM               0.000818851500 Eh/α |
          | HOMO-LUMO GAP              12.552104082498 eV   |
           -------------------------------------------------

------------------------------------------------------------------------
 * finished run on 2026/08/28 at 14:07:44.801     
------------------------------------------------------------------------
 total:
 * wall-time:     0 d,  0 h,  0 min,  0.036 sec
 *  cpu-time:     0 d,  0 h,  0 min,  0.110 sec
 * ratio c/w:     3.071 speedup
 SCF:
 * wall-time:     0 d,  0 h,  0 min,  0.003 sec
 *  cpu-time:     0 d,  0 h,  0 min,  0.008 sec
 * ratio c/w:     2.802 speedup
 ANC optimizer:
 * wall-time:     0 d,  0 h,  0 min,  0.021 sec
 *  cpu-time:     0 d,  0 h,  0 min,  0.051 sec
 * ratio c/w:     2.428 speedup
 analytical hessian:
 * wall-time:     0 d,  0 h,  0 min,  0.008 sec
 *  cpu-time:     0 d,  0 h,  0 min,  0.047 sec
 * ratio c/w:     5.709 speedup

