 Entering Gaussian System
 *********************************************
 Gaussian 98:
 frequency output generated by the xtb code
 *********************************************
                         Standard orientation:
 --------------------------------------------------------------------
  Center     Atomic     Atomic              Coordinates (Angstroms)
  Number     Number      Type              X           Y           Z
 --------------------------------------------------------------------
    1          6             0        1.205247   -0.421902    0.017745
    2          6             0        0.024617    0.536847    0.009233
    3          8             0       -1.166834   -0.222027    0.006211
    4          1             0       -1.922917    0.372787   -0.006687
    5          1             0        0.062768    1.182768    0.898925
    6          1             0        0.070211    1.178851   -0.882865
    7          1             0        2.139252    0.133202    0.015744
    8          1             0        1.162519   -1.051279    0.902395
    9          1             0        1.164818   -1.060976   -0.860711
 --------------------------------------------------------------------
     1 basis functions        1 primitive gaussians
     1 alpha electrons        1 beta electrons

 Harmonic frequencies (cm**-1), IR intensities (km*mol⁻¹),
 Raman scattering activities (A**4/amu), Raman depolarization ratios,
 reduced masses (AMU), force constants (mDyne/A) and normal coordinates:
                      1                      2                      3
                        a                      a                      a 
 Frequencies --   204.0448               293.0030               394.3650
 Red. masses --     2.6835                 2.0115                 9.9874
 Frc consts  --     0.0000                 0.0000                 0.0000
 IR Inten    --     7.0619               155.8241                12.3448
 Raman Activ --     0.0000                 0.0000                 0.0000
 Depolar     --     0.0000                 0.0000                 0.0000
 Atom AN      X      Y      Z        X      Y      Z        X      Y      Z
   1   6     0.00   0.00   0.01    -0.00   0.00   0.10     0.44   0.06   0.00
   2   6    -0.00   0.00   0.22     0.00   0.00  -0.13    -0.01  -0.41   0.00
   3   8     0.00  -0.00  -0.27     0.01  -0.00  -0.22    -0.53   0.23  -0.00
   4   1    -0.00   0.00   0.10    -0.01   0.01   0.95    -0.00   0.22   0.00
   5   1    -0.03  -0.08   0.12    -0.01   0.02  -0.05     0.03  -0.11  -0.00
   6   1     0.03   0.08   0.12     0.01  -0.02  -0.05     0.03  -0.11   0.00
   7   1     0.00  -0.00  -0.54    -0.00  -0.00   0.12    -0.00   0.24   0.00
   8   1     0.34   0.30   0.24    -0.07  -0.01   0.02     0.29   0.02   0.01
   9   1    -0.34  -0.30   0.24     0.07   0.01   0.02     0.29   0.01  -0.00
                      4                      5                      6
                        a                      a                      a 
 Frequencies --   837.7057               930.3328              1039.8680
 Red. masses --     1.9674                 8.0227                 6.7700
 Frc consts  --     0.0000                 0.0000                 0.0000
 IR Inten    --     1.3816                 9.2060                27.7530
 Raman Activ --     0.0000                 0.0000                 0.0000
 Depolar     --     0.0000                 0.0000                 0.0000
 Atom AN      X      Y      Z        X      Y      Z        X      Y      Z
   1   6     0.00  -0.00  -0.14     0.45   0.00   0.00     0.20  -0.45   0.00
   2   6     0.00   0.00  -0.24     0.12   0.33   0.00    -0.32   0.38  -0.00
   3   8    -0.00   0.00   0.09    -0.43  -0.20  -0.00     0.06   0.13  -0.00
   4   1    -0.00  -0.00  -0.02    -0.10  -0.04   0.00    -0.31  -0.38   0.00
   5   1     0.18  -0.39   0.22    -0.10   0.08   0.00    -0.00   0.10   0.00
   6   1    -0.18   0.39   0.22    -0.10   0.07  -0.00    -0.00   0.10  -0.00
   7   1     0.00  -0.00   0.16     0.38  -0.44   0.00    -0.09   0.14  -0.00
   8   1    -0.30   0.30   0.17    -0.17  -0.02  -0.02     0.29  -0.11   0.01
   9   1     0.30  -0.30   0.18    -0.17  -0.02   0.02     0.29  -0.11  -0.01
                      7                      8                      9
                        a                      a                      a 
 Frequencies --  1128.0655              1152.1812              1239.5872
 Red. masses --     9.6289                 5.1035                 3.9809
 Frc consts  --     0.0000                 0.0000                 0.0000
 IR Inten    --    51.8639                15.2083               106.8688
 Raman Activ --     0.0000                 0.0000                 0.0000
 Depolar     --     0.0000                 0.0000                 0.0000
 Atom AN      X      Y      Z        X      Y      Z        X      Y      Z
   1   6     0.27   0.00  -0.00    -0.00   0.00   0.30    -0.04  -0.26   0.00
   2   6    -0.60  -0.25   0.00     0.00  -0.01  -0.49     0.02   0.33  -0.00
   3   8     0.37   0.27   0.00     0.00   0.00   0.17    -0.03  -0.26   0.00
   4   1     0.15   0.14  -0.00     0.00   0.00   0.01     0.46   0.54  -0.00
   5   1    -0.25  -0.01  -0.01    -0.26  -0.34   0.14    -0.26   0.10  -0.00
   6   1    -0.25  -0.02   0.01     0.25   0.34   0.14    -0.27   0.10  -0.00
   7   1     0.20  -0.24   0.00     0.00  -0.00  -0.14    -0.12   0.13  -0.00
   8   1    -0.10  -0.03  -0.03     0.22  -0.23  -0.08     0.17  -0.04   0.03
   9   1    -0.09  -0.04   0.03    -0.22   0.23  -0.09     0.17  -0.04  -0.03
                     10                     11                     12
                        a                      a                      a 
 Frequencies --  1264.9519              1365.6175              1405.6025
 Red. masses --     2.1250                 3.8141                 3.6481
 Frc consts  --     0.0000                 0.0000                 0.0000
 IR Inten    --     0.7335                 9.8681                11.0116
 Raman Activ --     0.0000                 0.0000                 0.0000
 Depolar     --     0.0000                 0.0000                 0.0000
 Atom AN      X      Y      Z        X      Y      Z        X      Y      Z
   1   6    -0.00   0.00   0.28     0.07  -0.14   0.00    -0.37   0.22  -0.00
   2   6    -0.00  -0.00  -0.09     0.40  -0.15   0.00     0.20  -0.07   0.00
   3   8     0.00   0.00  -0.11     0.02   0.19  -0.00     0.02   0.09  -0.00
   4   1    -0.00  -0.00  -0.02    -0.19  -0.21   0.00    -0.09  -0.10   0.00
   5   1     0.62  -0.05  -0.01    -0.50   0.03  -0.02    -0.23  -0.03   0.02
   6   1    -0.62   0.05  -0.01    -0.50   0.03   0.02    -0.23  -0.03  -0.02
   7   1     0.00  -0.00  -0.09    -0.16   0.24  -0.00     0.22  -0.42   0.00
   8   1     0.16  -0.18  -0.05    -0.17   0.10   0.08     0.42  -0.14  -0.10
   9   1    -0.16   0.18  -0.05    -0.17   0.10  -0.08     0.42  -0.14   0.10
                     13                     14                     15
                        a                      a                      a 
 Frequencies --  1474.8269              1493.7312              1496.2308
 Red. masses --     1.5276                 1.7543                 1.6495
 Frc consts  --     0.0000                 0.0000                 0.0000
 IR Inten    --     2.0480                 5.4526                 1.4041
 Raman Activ --     0.0000                 0.0000                 0.0000
 Depolar     --     0.0000                 0.0000                 0.0000
 Atom AN      X      Y      Z        X      Y      Z        X      Y      Z
   1   6    -0.00  -0.00  -0.21    -0.01  -0.07   0.00    -0.10  -0.18   0.00
   2   6    -0.00  -0.00  -0.05    -0.03   0.24  -0.00    -0.05  -0.12   0.00
   3   8     0.00   0.00   0.00     0.03   0.03   0.00    -0.00  -0.01  -0.00
   4   1     0.00  -0.00  -0.00     0.00   0.00  -0.00    -0.00  -0.00   0.00
   5   1     0.02  -0.02   0.00    -0.04  -0.52   0.37     0.06   0.18  -0.14
   6   1    -0.02   0.02   0.00    -0.04  -0.52  -0.37     0.05   0.18   0.14
   7   1     0.00   0.00   0.72     0.03  -0.06  -0.00     0.13  -0.25  -0.01
   8   1     0.45   0.11   0.08     0.02   0.19   0.14     0.14   0.48   0.36
   9   1    -0.45  -0.10   0.07     0.02   0.19  -0.14     0.15   0.48  -0.36
                     16                     17                     18
                        a                      a                      a 
 Frequencies --  2854.1400              2887.2903              3044.4941
 Red. masses --     1.9790                 1.4232                 1.5063
 Frc consts  --     0.0000                 0.0000                 0.0000
 IR Inten    --    87.4596                70.4015                23.7656
 Raman Activ --     0.0000                 0.0000                 0.0000
 Depolar     --     0.0000                 0.0000                 0.0000
 Atom AN      X      Y      Z        X      Y      Z        X      Y      Z
   1   6    -0.00  -0.00  -0.01     0.01   0.00   0.00    -0.18  -0.04   0.10
   2   6    -0.00   0.00   0.30     0.00  -0.19   0.00    -0.01  -0.00   0.01
   3   8     0.00   0.00   0.01    -0.02  -0.01   0.00     0.00   0.00  -0.00
   4   1     0.00  -0.00  -0.01    -0.00  -0.00  -0.00    -0.00   0.00   0.00
   5   1    -0.02  -0.41  -0.54     0.02   0.37   0.58    -0.00  -0.00  -0.01
   6   1     0.02   0.40  -0.53     0.03   0.37  -0.59     0.00   0.01  -0.01
   7   1    -0.00  -0.00  -0.00    -0.02  -0.01   0.00     0.71   0.44   0.01
   8   1    -0.00  -0.02   0.02     0.00  -0.01   0.02    -0.02  -0.01   0.02
   9   1     0.00   0.02   0.03     0.00  -0.01  -0.02    -0.05  -0.30  -0.40
                     19                     20                     21
                        a                      a                      a 
 Frequencies --  3046.1290              3052.4992              3569.2274
 Red. masses --     1.9579                 1.7000                 1.8745
 Frc consts  --     0.0000                 0.0000                 0.0000
 IR Inten    --    31.5519                25.4301                 6.4301
 Raman Activ --     0.0000                 0.0000                 0.0000
 Depolar     --     0.0000                 0.0000                 0.0000
 Atom AN      X      Y      Z        X      Y      Z        X      Y      Z
   1   6    -0.11  -0.12  -0.25    -0.06  -0.21   0.12     0.00   0.00   0.00
   2   6    -0.00  -0.01  -0.02    -0.00  -0.01   0.01     0.00  -0.00   0.00
   3   8    -0.00   0.00   0.00    -0.00   0.00  -0.00     0.19  -0.15   0.00
   4   1     0.00  -0.00  -0.00     0.00  -0.00   0.00    -0.77   0.60  -0.01
   5   1     0.00   0.02   0.03     0.00   0.01   0.01    -0.00   0.00   0.00
   6   1    -0.00  -0.01   0.01     0.00   0.02  -0.03    -0.00   0.00  -0.00
   7   1     0.38   0.23  -0.04     0.17   0.08   0.02     0.00  -0.00   0.00
   8   1    -0.04  -0.24   0.29     0.04   0.50  -0.73    -0.00   0.00  -0.00
   9   1     0.02   0.44   0.61     0.01   0.17   0.29    -0.00   0.00   0.00
