9
 energy: -11.391865950348 gnorm: 0.000818865757 xtb: 6.7.1 (unknown)
C            1.20524716913382       -0.42190194785850        0.01774467602322
C            0.02461678345679        0.53684674464737        0.00923309150796
O           -1.16683377490497       -0.22202685533436        0.00621070241220
H           -1.92291649340389        0.37278653144587       -0.00668717747782
H            0.06276775044263        1.18276748046658        0.89892538652342
H            0.07021124239031        1.17885078531269       -0.88286520313138
H            2.13925185159189        0.13320165737131        0.01574369068506
H            1.16251887412515       -1.05127861490796        0.90239503330182
H            1.16481838454785       -1.06097601057342       -0.86071067523282
