 Entering Gaussian System
 *********************************************
 Gaussian 98:
 frequency output generated by the xtb code
 *********************************************
                         Standard orientation:
 --------------------------------------------------------------------
  Center     Atomic     Atomic              Coordinates (Angstroms)
  Number     Number      Type              X           Y           Z
 --------------------------------------------------------------------
    1          6             0       -0.650883   -0.850995   -0.842256
    2          6             0       -0.540056   -0.981008    0.651500
    3          6             0        0.859578   -0.601533   -0.932221
    4          6             0        0.970123   -0.730940    0.561429
    5          6             0       -1.159236    0.250658    0.047985
    6          6             0        1.086155    0.622317   -0.085988
    7          6             0       -0.190912    1.403862    0.075611
    8          1             0       -1.243538   -1.401532   -1.550347
    9          1             0       -1.029745   -1.652460    1.334208
   10          1             0        1.510758   -0.944630   -1.715524
   11          1             0        1.724844   -1.196274    1.169339
   12          1             0       -2.220611    0.421905    0.141772
   13          1             0        2.039024    1.127546   -0.111810
   14          1             0       -0.354863    2.101484   -0.747353
   15          1             0       -0.225746    1.950646    1.019267
 --------------------------------------------------------------------
     1 basis functions        1 primitive gaussians
     1 alpha electrons        1 beta electrons

 Harmonic frequencies (cm**-1), IR intensities (km*mol⁻¹),
 Raman scattering activities (A**4/amu), Raman depolarization ratios,
 reduced masses (AMU), force constants (mDyne/A) and normal coordinates:
                      1                      2                      3
                        a                      a                      a 
 Frequencies --   374.5176               522.6473               673.9623
 Red. masses --     6.5364                 8.7776                11.3960
 Frc consts  --     0.0000                 0.0000                 0.0000
 IR Inten    --     0.6181                 0.0000                 0.1133
 Raman Activ --     0.0000                 0.0000                 0.0000
 Depolar     --     0.0000                 0.0000                 0.0000
 Atom AN      X      Y      Z        X      Y      Z        X      Y      Z
   1   6     0.05  -0.18  -0.01    -0.07  -0.27   0.13     0.14   0.39  -0.03
   2   6    -0.05   0.18   0.03     0.09   0.25   0.17     0.14   0.38   0.08
   3   6     0.01  -0.19  -0.01    -0.17   0.24  -0.12     0.26  -0.33   0.01
   4   6    -0.01   0.19   0.03     0.15  -0.21  -0.18     0.25  -0.32  -0.10
   5   6    -0.02   0.03  -0.30    -0.03   0.03  -0.40    -0.24   0.13   0.03
   6   6    -0.02   0.03  -0.30     0.03  -0.03   0.39    -0.19  -0.21  -0.00
   7   6     0.03  -0.04   0.41     0.00   0.00   0.00    -0.31  -0.05   0.02
   8   1     0.02  -0.10   0.03     0.01  -0.21   0.11     0.04   0.02   0.06
   9   1    -0.01   0.09   0.05     0.01   0.18   0.15     0.03   0.03  -0.06
  10   1     0.02  -0.10   0.03    -0.07   0.20  -0.11     0.03  -0.01  -0.07
  11   1    -0.01   0.09   0.05     0.05  -0.18  -0.15     0.04  -0.02   0.06
  12   1    -0.01   0.01  -0.14    -0.01   0.01  -0.07    -0.09  -0.08  -0.00
  13   1    -0.01   0.01  -0.14     0.01  -0.01   0.07    -0.11   0.05   0.01
  14   1    -0.02   0.27   0.37     0.17   0.03  -0.01    -0.04  -0.01   0.00
  15   1     0.07  -0.33   0.31    -0.17  -0.03   0.01    -0.04  -0.01   0.00
                      4                      5                      6
                        a                      a                      a 
 Frequencies --   715.4128               755.2343               821.3301
 Red. masses --    10.6612                 9.9485                 3.4473
 Frc consts  --     0.0000                 0.0000                 0.0000
 IR Inten    --     0.0679                 0.0001                 0.7224
 Raman Activ --     0.0000                 0.0000                 0.0000
 Depolar     --     0.0000                 0.0000                 0.0000
 Atom AN      X      Y      Z        X      Y      Z        X      Y      Z
   1   6     0.08  -0.21   0.03    -0.35   0.07  -0.26     0.04  -0.06   0.12
   2   6     0.07  -0.20  -0.07     0.30  -0.02  -0.31     0.02  -0.04  -0.14
   3   6    -0.00  -0.23   0.03    -0.27  -0.17   0.29     0.00   0.07  -0.12
   4   6    -0.01  -0.22  -0.07     0.32   0.12   0.28     0.02   0.05   0.13
   5   6     0.38   0.13  -0.02    -0.01   0.01  -0.16    -0.19   0.14   0.03
   6   6    -0.40  -0.00   0.03     0.01  -0.01   0.16    -0.14  -0.19  -0.01
   7   6    -0.09   0.57   0.06    -0.00  -0.00   0.00     0.17   0.03  -0.01
   8   1    -0.07   0.08  -0.03    -0.09  -0.02  -0.05     0.07  -0.34   0.24
   9   1    -0.06   0.08   0.05     0.08   0.03  -0.06     0.03  -0.29  -0.30
  10   1     0.03   0.10  -0.04    -0.08  -0.01   0.06    -0.07   0.35  -0.24
  11   1     0.04   0.09   0.05     0.09   0.00   0.05    -0.03   0.30   0.30
  12   1     0.09  -0.05  -0.01     0.02  -0.02   0.24    -0.04   0.11   0.01
  13   1    -0.07  -0.08  -0.00    -0.02   0.02  -0.25    -0.00  -0.12  -0.01
  14   1    -0.02   0.16   0.01     0.11   0.02  -0.01     0.13   0.02  -0.01
  15   1    -0.03   0.16   0.02    -0.11  -0.02   0.01     0.13   0.02  -0.01
                      7                      8                      9
                        a                      a                      a 
 Frequencies --   845.2336               870.5071               905.8335
 Red. masses --     5.5033                 3.1632                 3.8479
 Frc consts  --     0.0000                 0.0000                 0.0000
 IR Inten    --    12.6263                 5.2650                 0.0001
 Raman Activ --     0.0000                 0.0000                 0.0000
 Depolar     --     0.0000                 0.0000                 0.0000
 Atom AN      X      Y      Z        X      Y      Z        X      Y      Z
   1   6     0.20   0.15   0.17     0.00  -0.06   0.09    -0.11   0.12   0.15
   2   6    -0.17  -0.18   0.17    -0.02  -0.05  -0.09     0.13  -0.14   0.11
   3   6    -0.21   0.08   0.19     0.03  -0.05   0.08    -0.08  -0.13  -0.13
   4   6     0.24  -0.11   0.15     0.02  -0.04  -0.09     0.07   0.16  -0.11
   5   6    -0.01   0.01  -0.15    -0.15   0.10   0.02    -0.02   0.02  -0.20
   6   6    -0.01   0.01  -0.15     0.10   0.14   0.00     0.01  -0.02   0.19
   7   6     0.00  -0.00   0.01    -0.05   0.30   0.03    -0.00   0.00  -0.01
   8   1     0.10   0.22  -0.12     0.07  -0.37   0.24    -0.21   0.26   0.02
   9   1    -0.12  -0.19  -0.14     0.02  -0.32  -0.31     0.21  -0.26  -0.06
  10   1    -0.18   0.17  -0.11     0.08  -0.36   0.24    -0.13  -0.33   0.00
  11   1     0.16  -0.14  -0.15     0.05  -0.31  -0.31     0.13   0.32   0.04
  12   1    -0.03   0.03  -0.39    -0.04   0.03   0.00    -0.03   0.03  -0.34
  13   1    -0.03   0.03  -0.39     0.03   0.04  -0.00     0.03  -0.03   0.36
  14   1     0.00  -0.03  -0.03    -0.01   0.09   0.01     0.10   0.03  -0.00
  15   1    -0.01   0.04  -0.02    -0.01   0.09   0.01    -0.09  -0.03   0.01
                     10                     11                     12
                        a                      a                      a 
 Frequencies --   914.2675               968.1969               969.3479
 Red. masses --     6.3604                 4.5921                 3.1571
 Frc consts  --     0.0000                 0.0000                 0.0000
 IR Inten    --     0.4010                 1.7010                 0.0732
 Raman Activ --     0.0000                 0.0000                 0.0000
 Depolar     --     0.0000                 0.0000                 0.0000
 Atom AN      X      Y      Z        X      Y      Z        X      Y      Z
   1   6    -0.06   0.22   0.13     0.20   0.13  -0.10    -0.10  -0.05   0.07
   2   6     0.08  -0.24   0.08     0.16   0.09   0.06     0.18   0.07   0.09
   3   6     0.01   0.24   0.14    -0.24   0.05  -0.07     0.11  -0.02   0.06
   4   6     0.01  -0.26   0.10    -0.18   0.03   0.07    -0.18   0.02   0.11
   5   6    -0.01   0.01  -0.15    -0.03  -0.16  -0.00    -0.01  -0.03  -0.05
   6   6    -0.01   0.01  -0.17     0.09  -0.13  -0.01     0.01  -0.02  -0.05
   7   6    -0.03   0.03  -0.37    -0.04   0.24   0.07    -0.03   0.07  -0.24
   8   1     0.17  -0.07  -0.02     0.35  -0.11  -0.16    -0.25   0.26  -0.01
   9   1    -0.17   0.07   0.02     0.25  -0.02   0.11     0.37  -0.28  -0.05
  10   1    -0.13  -0.10   0.00    -0.32  -0.21  -0.13     0.15   0.33  -0.04
  11   1     0.13   0.10   0.00    -0.22  -0.10   0.15    -0.26  -0.39  -0.02
  12   1     0.02  -0.03   0.28    -0.05  -0.30  -0.02    -0.01  -0.06   0.00
  13   1     0.02  -0.02   0.26     0.15  -0.26  -0.04     0.03  -0.05   0.01
  14   1    -0.04   0.30   0.16    -0.01   0.02  -0.02    -0.03   0.20   0.10
  15   1     0.06  -0.32   0.10    -0.03   0.10  -0.00     0.04  -0.19   0.06
                     13                     14                     15
                        a                      a                      a 
 Frequencies --   973.7652               986.1016               991.0856
 Red. masses --     6.0809                 4.0392                 9.1933
 Frc consts  --     0.0000                 0.0000                 0.0000
 IR Inten    --     3.5117                 0.0054                 0.0317
 Raman Activ --     0.0000                 0.0000                 0.0000
 Depolar     --     0.0000                 0.0000                 0.0000
 Atom AN      X      Y      Z        X      Y      Z        X      Y      Z
   1   6     0.10  -0.13   0.10     0.04  -0.23   0.09     0.05   0.23  -0.15
   2   6     0.08  -0.09  -0.13    -0.03   0.21   0.13     0.11   0.16   0.17
   3   6     0.03   0.15  -0.11    -0.03   0.25  -0.08    -0.15   0.20  -0.13
   4   6     0.05   0.12   0.12     0.02  -0.24  -0.13    -0.14   0.11   0.18
   5   6    -0.36   0.14   0.04    -0.00   0.00  -0.06     0.45  -0.10  -0.05
   6   6    -0.30  -0.26   0.00     0.02   0.00   0.06    -0.39  -0.24   0.01
   7   6     0.12   0.03  -0.00    -0.00   0.00  -0.00     0.03  -0.17  -0.02
   8   1     0.13   0.16  -0.22    -0.01   0.26  -0.21    -0.08  -0.14   0.20
   9   1     0.16   0.12   0.21    -0.03  -0.22  -0.26    -0.07  -0.08  -0.16
  10   1     0.19  -0.12   0.19     0.12  -0.25   0.22     0.14  -0.11   0.19
  11   1     0.15  -0.07  -0.22    -0.10   0.21   0.30     0.07  -0.05  -0.16
  12   1    -0.11  -0.03   0.01     0.02  -0.02   0.30     0.12  -0.05  -0.05
  13   1    -0.11  -0.03  -0.00    -0.02   0.03  -0.34    -0.10  -0.09  -0.04
  14   1     0.30   0.05  -0.02     0.08   0.02  -0.00     0.01  -0.07  -0.02
  15   1     0.29   0.05  -0.02    -0.10  -0.02   0.01     0.01  -0.07   0.01
                     16                     17                     18
                        a                      a                      a 
 Frequencies --   993.8677              1022.0652              1048.9638
 Red. masses --     4.4293                 6.0775                 6.4127
 Frc consts  --     0.0000                 0.0000                 0.0000
 IR Inten    --     1.5344                 5.5191                 0.0006
 Raman Activ --     0.0000                 0.0000                 0.0000
 Depolar     --     0.0000                 0.0000                 0.0000
 Atom AN      X      Y      Z        X      Y      Z        X      Y      Z
   1   6     0.16  -0.21  -0.03    -0.13   0.10  -0.26     0.14   0.27   0.15
   2   6    -0.14   0.26   0.07    -0.09   0.06   0.29    -0.11  -0.29   0.11
   3   6    -0.09  -0.23  -0.03    -0.06  -0.14   0.27     0.19  -0.21  -0.17
   4   6     0.06   0.26   0.04    -0.10  -0.09  -0.28    -0.21   0.24  -0.10
   5   6     0.05  -0.01   0.03    -0.05  -0.14  -0.01    -0.01   0.02  -0.15
   6   6    -0.04  -0.03   0.04    -0.07   0.11   0.02     0.01  -0.01   0.16
   7   6     0.00  -0.02  -0.02     0.20   0.04  -0.01    -0.00  -0.00  -0.00
   8   1     0.12   0.17  -0.25     0.26  -0.16  -0.18     0.02  -0.01   0.12
   9   1    -0.17  -0.15  -0.29     0.29  -0.19   0.11    -0.00  -0.01   0.13
  10   1    -0.18   0.09  -0.20     0.22   0.24   0.15    -0.00   0.01  -0.12
  11   1     0.17  -0.07  -0.28     0.20   0.27  -0.14    -0.02   0.00  -0.12
  12   1     0.04  -0.04   0.37     0.01   0.09   0.01     0.03  -0.03   0.35
  13   1     0.01  -0.04   0.34     0.04  -0.09  -0.01    -0.03   0.03  -0.35
  14   1     0.00   0.00   0.00     0.03   0.01  -0.00     0.31   0.05  -0.02
  15   1    -0.00  -0.02   0.00     0.03   0.01  -0.00    -0.31  -0.06   0.02
                     19                     20                     21
                        a                      a                      a 
 Frequencies --  1049.2812              1065.7349              1075.5140
 Red. masses --     3.7869                 8.0849                 3.0244
 Frc consts  --     0.0000                 0.0000                 0.0000
 IR Inten    --     0.1043                 3.5961                 0.2932
 Raman Activ --     0.0000                 0.0000                 0.0000
 Depolar     --     0.0000                 0.0000                 0.0000
 Atom AN      X      Y      Z        X      Y      Z        X      Y      Z
   1   6    -0.11   0.03  -0.06     0.11  -0.06  -0.11     0.05  -0.04   0.09
   2   6    -0.10   0.02   0.08    -0.12   0.08  -0.08     0.03  -0.03  -0.10
   3   6     0.09   0.07  -0.08    -0.10  -0.09  -0.10     0.02   0.05  -0.09
   4   6     0.10   0.05   0.07     0.09   0.11  -0.09     0.03   0.04   0.09
   5   6    -0.17  -0.19  -0.01     0.03  -0.04   0.43     0.02   0.19   0.02
   6   6     0.23  -0.13  -0.03     0.03  -0.04   0.43     0.07  -0.18  -0.02
   7   6    -0.04   0.22   0.02    -0.03   0.04  -0.39    -0.25  -0.04   0.01
   8   1    -0.25   0.07   0.12     0.04  -0.05  -0.02     0.11   0.03  -0.09
   9   1    -0.26   0.08  -0.07    -0.05   0.05  -0.00     0.12   0.02   0.07
  10   1     0.22   0.14   0.08    -0.03  -0.06  -0.01     0.12   0.01   0.07
  11   1     0.21   0.16  -0.09     0.03   0.06  -0.00     0.11   0.02  -0.09
  12   1    -0.12  -0.45  -0.03    -0.02   0.01  -0.25     0.08   0.51   0.03
  13   1     0.25  -0.39  -0.05    -0.02   0.02  -0.24     0.23  -0.45  -0.06
  14   1    -0.01   0.06   0.01    -0.04   0.29   0.15    -0.32  -0.05   0.02
  15   1    -0.01   0.06   0.00     0.06  -0.31   0.09    -0.32  -0.06   0.02
                     22                     23                     24
                        a                      a                      a 
 Frequencies --  1133.6449              1138.2888              1174.8699
 Red. masses --     3.2228                 9.6992                 5.6711
 Frc consts  --     0.0000                 0.0000                 0.0000
 IR Inten    --     0.0002                 0.0144                 0.0002
 Raman Activ --     0.0000                 0.0000                 0.0000
 Depolar     --     0.0000                 0.0000                 0.0000
 Atom AN      X      Y      Z        X      Y      Z        X      Y      Z
   1   6     0.10   0.01  -0.02     0.29   0.01   0.28     0.17  -0.14  -0.20
   2   6    -0.09  -0.00  -0.01     0.25   0.06  -0.32    -0.19   0.17  -0.15
   3   6     0.09   0.02   0.01    -0.25  -0.08   0.32     0.14   0.19   0.19
   4   6    -0.09  -0.03   0.02    -0.29  -0.02  -0.28    -0.11  -0.22   0.16
   5   6    -0.02   0.03  -0.28    -0.02   0.17   0.02     0.01  -0.02   0.17
   6   6     0.02  -0.02   0.28    -0.04   0.16   0.01    -0.01   0.02  -0.17
   7   6    -0.00  -0.00  -0.00     0.04  -0.26  -0.03     0.00  -0.00   0.00
   8   1    -0.16   0.03   0.13    -0.03   0.09   0.12    -0.28   0.02   0.17
   9   1     0.18  -0.05   0.09    -0.05   0.11  -0.10     0.31  -0.05   0.12
  10   1    -0.16  -0.09  -0.11     0.02   0.10   0.12    -0.28  -0.11  -0.14
  11   1     0.14   0.11  -0.11     0.00   0.12  -0.10     0.26   0.14  -0.16
  12   1     0.02  -0.02   0.21    -0.04  -0.22  -0.02     0.00   0.00   0.01
  13   1    -0.01   0.01  -0.21     0.11  -0.20  -0.02    -0.00   0.00  -0.02
  14   1    -0.51  -0.09   0.03     0.02  -0.07  -0.01     0.25   0.04  -0.01
  15   1     0.51   0.08  -0.03     0.01  -0.07  -0.01    -0.25  -0.04   0.01
                     25                     26                     27
                        a                      a                      a 
 Frequencies --  1204.8124              1219.0327              1268.6389
 Red. masses --     6.1224                 7.8688                 6.9184
 Frc consts  --     0.0000                 0.0000                 0.0000
 IR Inten    --     0.1963                 0.7541                 1.0131
 Raman Activ --     0.0000                 0.0000                 0.0000
 Depolar     --     0.0000                 0.0000                 0.0000
 Atom AN      X      Y      Z        X      Y      Z        X      Y      Z
   1   6    -0.11  -0.01   0.16    -0.37  -0.10   0.07    -0.03  -0.03  -0.07
   2   6    -0.13   0.02  -0.14     0.38   0.09   0.03    -0.02  -0.04   0.07
   3   6    -0.13  -0.03  -0.15     0.39   0.03   0.02    -0.03   0.02   0.08
   4   6    -0.11  -0.06   0.16    -0.38  -0.04   0.07    -0.04   0.03  -0.07
   5   6     0.22   0.31   0.01     0.00  -0.01   0.06     0.21   0.08  -0.01
   6   6     0.31  -0.23  -0.04     0.00  -0.00   0.06     0.22  -0.01  -0.02
   7   6    -0.13  -0.02   0.01     0.00  -0.00   0.05    -0.63  -0.10   0.04
   8   1     0.19  -0.08  -0.09     0.16  -0.01  -0.22     0.01  -0.05  -0.00
   9   1     0.21  -0.09   0.04    -0.19   0.04  -0.19     0.01  -0.05  -0.01
  10   1     0.17   0.13   0.06    -0.17  -0.06  -0.20    -0.01   0.05   0.00
  11   1     0.16   0.15  -0.07     0.14   0.09  -0.21    -0.01   0.05   0.00
  12   1    -0.02  -0.38  -0.03    -0.02   0.02  -0.21     0.07   0.11   0.00
  13   1    -0.13   0.36   0.04    -0.01   0.01  -0.21     0.10  -0.08  -0.01
  14   1    -0.13  -0.02   0.01     0.00  -0.02  -0.00     0.45   0.07  -0.03
  15   1    -0.13  -0.02   0.01    -0.00   0.02   0.00     0.45   0.08  -0.03
                     28                     29                     30
                        a                      a                      a 
 Frequencies --  1278.9868              1390.9083              1412.3941
 Red. masses --     8.4309                11.0723                10.7472
 Frc consts  --     0.0000                 0.0000                 0.0000
 IR Inten    --     0.8442                 4.1939                 1.2898
 Raman Activ --     0.0000                 0.0000                 0.0000
 Depolar     --     0.0000                 0.0000                 0.0000
 Atom AN      X      Y      Z        X      Y      Z        X      Y      Z
   1   6    -0.30  -0.01   0.16     0.07  -0.10  -0.31     0.07  -0.15  -0.33
   2   6    -0.33   0.02  -0.11     0.12  -0.15   0.27     0.12  -0.21   0.28
   3   6     0.31   0.09   0.12    -0.07  -0.13  -0.30     0.06   0.17   0.32
   4   6     0.29   0.12  -0.15    -0.03  -0.18   0.28     0.01   0.23  -0.29
   5   6     0.22   0.19  -0.00    -0.08   0.46   0.05    -0.07   0.40   0.04
   6   6    -0.27   0.10   0.03    -0.07   0.46   0.04     0.06  -0.40  -0.04
   7   6     0.03  -0.18  -0.02     0.03  -0.20  -0.02    -0.00   0.00  -0.00
   8   1     0.13  -0.07  -0.08    -0.04  -0.05  -0.03    -0.12  -0.03   0.01
   9   1     0.14  -0.08   0.05    -0.03  -0.06   0.03    -0.12  -0.03   0.00
  10   1    -0.10  -0.11  -0.07     0.05  -0.04  -0.04    -0.12  -0.01   0.01
  11   1    -0.10  -0.12   0.06     0.05  -0.04   0.02    -0.12  -0.01   0.01
  12   1     0.00  -0.32  -0.03    -0.07  -0.16  -0.01    -0.06  -0.09  -0.00
  13   1     0.10  -0.30  -0.03     0.12  -0.13  -0.02    -0.08   0.07   0.01
  14   1     0.01  -0.08  -0.03     0.01  -0.04   0.00    -0.12  -0.02   0.01
  15   1     0.01  -0.08   0.01     0.01  -0.04  -0.01    -0.12  -0.02   0.01
                     31                     32                     33
                        a                      a                      a 
 Frequencies --  1475.9758              2972.2728              2988.6589
 Red. masses --     2.1005                 1.9969                 1.4759
 Frc consts  --     0.0000                 0.0000                 0.0000
 IR Inten    --     0.0688                47.2103                44.6128
 Raman Activ --     0.0000                 0.0000                 0.0000
 Depolar     --     0.0000                 0.0000                 0.0000
 Atom AN      X      Y      Z        X      Y      Z        X      Y      Z
   1   6    -0.01   0.01   0.01    -0.00  -0.00  -0.00     0.00   0.00  -0.00
   2   6    -0.01   0.01  -0.00     0.00   0.00  -0.00     0.00   0.00   0.00
   3   6     0.01   0.01   0.01     0.00  -0.00  -0.00    -0.00   0.00  -0.00
   4   6     0.01   0.01  -0.00    -0.00   0.00  -0.00    -0.00   0.00   0.00
   5   6     0.03  -0.01  -0.00     0.00  -0.00   0.01    -0.01  -0.00   0.00
   6   6    -0.03  -0.02   0.00     0.00  -0.00   0.01     0.01  -0.00  -0.00
   7   6     0.05  -0.30  -0.03     0.02  -0.03   0.30     0.03  -0.20  -0.03
   8   1     0.01  -0.00  -0.00     0.00   0.00   0.00    -0.00  -0.00  -0.00
   9   1     0.01  -0.00  -0.00    -0.00  -0.00   0.00    -0.00  -0.00   0.00
  10   1    -0.01  -0.01   0.00    -0.00   0.00   0.00     0.00  -0.00  -0.00
  11   1    -0.01  -0.01  -0.00     0.00  -0.00   0.00     0.00  -0.00   0.00
  12   1     0.01  -0.02  -0.00     0.00  -0.00  -0.00     0.03  -0.01  -0.00
  13   1    -0.00  -0.02  -0.00    -0.00  -0.00  -0.00    -0.03  -0.02   0.00
  14   1    -0.06   0.50   0.45    -0.10   0.45  -0.51    -0.10   0.41  -0.53
  15   1    -0.11   0.56  -0.35     0.02  -0.35  -0.56    -0.02   0.32   0.63
                     34                     35                     36
                        a                      a                      a 
 Frequencies --  3086.4948              3090.7599              3104.0373
 Red. masses --     1.8184                 1.8234                 1.8080
 Frc consts  --     0.0000                 0.0000                 0.0000
 IR Inten    --    31.7538                21.2299                 5.9824
 Raman Activ --     0.0000                 0.0000                 0.0000
 Depolar     --     0.0000                 0.0000                 0.0000
 Atom AN      X      Y      Z        X      Y      Z        X      Y      Z
   1   6    -0.02  -0.02  -0.02     0.00   0.00   0.00    -0.07  -0.07  -0.09
   2   6    -0.02  -0.03   0.03     0.00   0.00  -0.00     0.08   0.12  -0.12
   3   6    -0.01   0.01   0.02     0.02  -0.01  -0.02    -0.06   0.03   0.07
   4   6    -0.02   0.01  -0.01     0.03  -0.02   0.02     0.08  -0.05   0.06
   5   6     0.25  -0.04  -0.02     0.08  -0.01  -0.01     0.02  -0.00  -0.00
   6   6     0.07   0.04  -0.00    -0.22  -0.12   0.01     0.01   0.00   0.00
   7   6     0.00  -0.01  -0.00     0.00  -0.01  -0.00    -0.00  -0.00  -0.00
   8   1     0.08   0.07   0.09     0.00  -0.00  -0.00     0.26   0.24   0.31
   9   1     0.08   0.11  -0.11    -0.00  -0.00   0.00    -0.30  -0.41   0.41
  10   1     0.05  -0.02  -0.05    -0.08   0.04   0.09     0.21  -0.11  -0.25
  11   1     0.06  -0.04   0.05    -0.10   0.06  -0.08    -0.28   0.17  -0.22
  12   1    -0.87   0.14   0.08    -0.29   0.05   0.03    -0.06   0.01   0.00
  13   1    -0.24  -0.13   0.01     0.79   0.42  -0.02    -0.03  -0.02   0.00
  14   1    -0.00   0.01  -0.01    -0.00   0.02  -0.02    -0.00  -0.00   0.00
  15   1     0.00   0.01   0.01    -0.00   0.01   0.02     0.00   0.00   0.00
                     37                     38                     39
                        a                      a                      a 
 Frequencies --  3113.2025              3116.9779              3123.5001
 Red. masses --     1.8531                 1.8962                 1.9504
 Frc consts  --     0.0000                 0.0000                 0.0000
 IR Inten    --    76.7618                95.5566                38.3917
 Raman Activ --     0.0000                 0.0000                 0.0000
 Depolar     --     0.0000                 0.0000                 0.0000
 Atom AN      X      Y      Z        X      Y      Z        X      Y      Z
   1   6     0.03   0.03   0.03    -0.11  -0.10  -0.13    -0.07  -0.06  -0.08
   2   6    -0.07  -0.09   0.09    -0.05  -0.07   0.07    -0.04  -0.06   0.06
   3   6    -0.10   0.05   0.12    -0.05   0.03   0.06     0.11  -0.06  -0.14
   4   6     0.12  -0.07   0.09    -0.08   0.05  -0.07     0.11  -0.07   0.09
   5   6    -0.02   0.00   0.00    -0.06   0.01   0.00    -0.02   0.01   0.00
   6   6    -0.00  -0.00   0.00    -0.04  -0.03   0.00     0.04   0.03  -0.00
   7   6     0.00   0.00   0.00     0.00   0.00  -0.00    -0.00   0.00   0.00
   8   1    -0.11  -0.10  -0.13     0.38   0.35   0.45     0.23   0.21   0.27
   9   1     0.22   0.31  -0.31     0.17   0.24  -0.24     0.13   0.18  -0.18
  10   1     0.34  -0.18  -0.41     0.17  -0.09  -0.21    -0.38   0.20   0.45
  11   1    -0.40   0.25  -0.32     0.28  -0.17   0.22    -0.35   0.22  -0.28
  12   1     0.05  -0.01  -0.00     0.19  -0.03  -0.02     0.06  -0.01  -0.01
  13   1     0.01   0.01   0.00     0.15   0.08  -0.00    -0.13  -0.07   0.00
  14   1    -0.00   0.00  -0.00    -0.00  -0.00   0.00     0.00  -0.00   0.00
  15   1     0.00  -0.00  -0.01    -0.00   0.00   0.00     0.00  -0.00  -0.00
