      -----------------------------------------------------------      
     |                   =====================                   |     
     |                           x T B                           |     
     |                   =====================                   |     
     |                         S. Grimme                         |     
     |          Mulliken Center for Theoretical Chemistry        |     
     |                    University of Bonn                     |     
      -----------------------------------------------------------      

   * xtb version 6.7.1 (unknown) compiled by 'runner@Mac-1732184002186.local' on 2024-11-21

   xtb is free software: you can redistribute it and/or modify it under
   the terms of the GNU Lesser General Public License as published by
   the Free Software Foundation, either version 3 of the License, or
   (at your option) any later version.
   
   xtb is distributed in the hope that it will be useful,
   but WITHOUT ANY WARRANTY; without even the implied warranty of
   MERCHANTABILITY or FITNESS FOR A PARTICULAR PURPOSE.  See the
   GNU Lesser General Public License for more details.
   
   Cite this work as:
   * C. Bannwarth, E. Caldeweyher, S. Ehlert, A. Hansen, P. Pracht,
     J. Seibert, S. Spicher, S. Grimme, WIREs Comput. Mol. Sci., 2020, 11,
     e01493. DOI: 10.1002/wcms.1493
   
   for GFN2-xTB:
   * C. Bannwarth, S. Ehlert and S. Grimme., J. Chem. Theory Comput., 2019,
     15, 1652-1671. DOI: 10.1021/acs.jctc.8b01176
   for GFN1-xTB:
   * S. Grimme, C. Bannwarth, P. Shushkov, J. Chem. Theory Comput., 2017,
     13, 1989-2009. DOI: 10.1021/acs.jctc.7b00118
   for GFN0-xTB:
   * P. Pracht, E. Caldeweyher, S. Ehlert, S. Grimme, ChemRxiv, 2019, preprint.
     DOI: 10.26434/chemrxiv.8326202.v1
   for GFN-FF:
   * S. Spicher and S. Grimme, Angew. Chem. Int. Ed., 2020, 59, 15665-15673.
     DOI: 10.1002/anie.202004239
   
   for ALPB and GBSA implicit solvation:
   * S. Ehlert, M. Stahn, S. Spicher, S. Grimme, J. Chem. Theory Comput.,
     2021, 17, 4250-4261. DOI: 10.1021/acs.jctc.1c00471
   
   for ddCOSMO and CPCM-X implicit solvation:
   * M. Stahn, S. Ehlert, S. Grimme, J. Phys. Chem. A,
     2023, XX, XXXX-XXXX. DOI: 10.1021/acs.jpca.3c04382
   
   for DFT-D4:
   * E. Caldeweyher, C. Bannwarth and S. Grimme, J. Chem. Phys., 2017,
     147, 034112. DOI: 10.1063/1.4993215
   * E. Caldeweyher, S. Ehlert, A. Hansen, H. Neugebauer, S. Spicher,
     C. Bannwarth and S. Grimme, J. Chem. Phys., 2019, 150, 154122.
     DOI: 10.1063/1.5090222
   * E. Caldeweyher, J.-M. Mewes, S. Ehlert and S. Grimme, Phys. Chem. Chem. Phys.
     2020, 22, 8499-8512. DOI: 10.1039/D0CP00502A
   
   for sTDA-xTB:
   * S. Grimme and C. Bannwarth, J. Chem. Phys., 2016, 145, 054103.
     DOI: 10.1063/1.4959605
   
   in the mass-spec context:
   * V. Asgeirsson, C. Bauer and S. Grimme, Chem. Sci., 2017, 8, 4879.
     DOI: 10.1039/c7sc00601b
   * J. Koopman and S. Grimme, ACS Omega 2019, 4, 12, 15120-15133.
     DOI: 10.1021/acsomega.9b02011
   
   for metadynamics refer to:
   * S. Grimme, J. Chem. Theory Comput., 2019, 155, 2847-2862
     DOI: 10.1021/acs.jctc.9b00143
   
   for SPH calculations refer to:
   * S. Spicher and S. Grimme, J. Chem. Theory Comput., 2021, 17, 1701-1714
     DOI: 10.1021/acs.jctc.0c01306
   
   for ONIOM refer to:
   * C. Plett, A. Katbashev, S. Ehlert, S. Grimme, M. Bursch,
     Phys. Chem. Chem. Phys., 2023, 25, 17860-17868. DOI: 10.1039/D3CP02178E
   
   for DIPRO refer to:
   * J. Kohn, N. Gildemeister, S. Grimme, D. Fazzi, A. Hansen,
     J. Chem. Phys., 2023, just accepted.
   
   for PTB refer to:
   * S. Grimme, M. Mueller, A. Hansen, J. Chem. Phys., 2023, 158, 124111.
     DOI: 10.1063/5.0137838
   
   with help from (in alphabetical order)
   P. Atkinson, C. Bannwarth, F. Bohle, G. Brandenburg, E. Caldeweyher
   M. Checinski, S. Dohm, S. Ehlert, S. Ehrlich, I. Gerasimov, C. Hölzer
   A. Katbashev, J. Kohn, J. Koopman, C. Lavigne, S. Lehtola, F. März, M. Müller,
   F. Musil, H. Neugebauer, J. Pisarek, C. Plett, P. Pracht, F. Pultar,
   J. Seibert, P. Shushkov, S. Spicher, M. Stahn, M. Steiner, T. Strunk,
   J. Stückrath, T. Rose, and J. Unsleber
   
 * started run on 2026/09/04 at 18:38:16.890     
   ID    Z sym.   atoms
    1    6 C      1-7
    2    1 H      8-15

           -------------------------------------------------
          |                Calculation Setup                |
           -------------------------------------------------

          program call               : /opt/homebrew/bin/xtb temp_frame_opt.xyz --chrg 0 --uhf 0 --gfn 2 --acc 1.0 --etemp 300.0 --parallel 1 --ohess normal --input control.txt
          coordinate file            : temp_frame_opt.xyz
          omp threads                :                     1


           -------------------------------------------------
          |                 G F N 2 - x T B                 |
           -------------------------------------------------

        Reference                      10.1021/acs.jctc.8b01176
      * Hamiltonian:
        H0-scaling (s, p, d)           1.850000    2.230000    2.230000
        zeta-weighting                 0.500000
      * Dispersion:
        s8                             2.700000
        a1                             0.520000
        a2                             5.000000
        s9                             5.000000
      * Repulsion:
        kExp                           1.500000    1.000000
        rExp                           1.000000
      * Coulomb:
        alpha                          2.000000
        third order                    shell-resolved
        anisotropic                    true
        a3                             3.000000
        a5                             4.000000
        cn-shift                       1.200000
        cn-exp                         4.000000
        max-rad                        5.000000

q/qsh data taken from xtbrestart
CAMM data taken from xtbrestart

          ...................................................
          :                      SETUP                      :
          :.................................................:
          :  # basis functions                  36          :
          :  # atomic orbitals                  36          :
          :  # shells                           22          :
          :  # electrons                        36          :
          :  max. iterations                   250          :
          :  Hamiltonian                  GFN2-xTB          :
          :  restarted?                       true          :
          :  GBSA solvation                  false          :
          :  PC potential                    false          :
          :  electronic temp.          300.0000000     K    :
          :  accuracy                    1.0000000          :
          :  -> integral cutoff          0.2500000E+02      :
          :  -> integral neglect         0.1000000E-07      :
          :  -> SCF convergence          0.1000000E-05 Eh   :
          :  -> wf. convergence          0.1000000E-03 e    :
          :  Broyden damping             0.4000000          :
          :  net charge                          0          :
          :  unpaired electrons                  0          :
          ...................................................

 iter      E             dE          RMSdq      gap      omega  full diag
   1    -19.0411418 -0.190411E+02  0.286E+00    2.27       0.0  T
   2    -19.0347563  0.638552E-02  0.193E+00    2.20       1.0  T
   3    -19.0127584  0.219978E-01  0.178E+00    2.26       1.0  T
   4    -19.0502709 -0.375124E-01  0.291E-01    2.20       1.0  T
   5    -19.0513201 -0.104926E-02  0.810E-02    2.17       1.0  T
   6    -19.0513386 -0.185319E-04  0.457E-02    2.17       1.0  T
   7    -19.0513337  0.493381E-05  0.326E-02    2.17       1.0  T
   8    -19.0513469 -0.131967E-04  0.572E-03    2.17       4.5  T
   9    -19.0513470 -0.119765E-06  0.233E-03    2.17      11.1  T
  10    -19.0513470 -0.950142E-08  0.474E-04    2.17      54.4  T
  11    -19.0513470 -0.120802E-08  0.218E-04    2.17     118.4  T

   *** convergence criteria satisfied after 11 iterations ***

         #    Occupation            Energy/Eh            Energy/eV
      -------------------------------------------------------------
         1        2.0000           -0.6604449             -17.9716
       ...           ...                  ...                  ...
        12        2.0000           -0.4593213             -12.4988
        13        2.0000           -0.4520119             -12.2999
        14        2.0000           -0.4434913             -12.0680
        15        2.0000           -0.4147680             -11.2864
        16        2.0000           -0.4117692             -11.2048
        17        2.0000           -0.3881632             -10.5625
        18        2.0000           -0.3002335              -8.1698 (HOMO)
        19                         -0.2204771              -5.9995 (LUMO)
        20                         -0.1460895              -3.9753
        21                         -0.0538565              -1.4655
        22                         -0.0335596              -0.9132
        23                          0.0144480               0.3932
       ...                                ...                  ...
        36                          0.5399508              14.6928
      -------------------------------------------------------------
                  HL-Gap            0.0797564 Eh            2.1703 eV
             Fermi-level           -0.2603553 Eh           -7.0846 eV

 SCC (total)                   0 d,  0 h,  0 min,  0.005 sec
 SCC setup                      ...        0 min,  0.000 sec (  0.713%)
 Dispersion                     ...        0 min,  0.000 sec (  0.631%)
 classical contributions        ...        0 min,  0.000 sec (  0.251%)
 integral evaluation            ...        0 min,  0.000 sec (  9.052%)
 iterations                     ...        0 min,  0.003 sec ( 61.917%)
 molecular gradient             ...        0 min,  0.001 sec ( 26.521%)
 printout                       ...        0 min,  0.000 sec (  0.828%)

         :::::::::::::::::::::::::::::::::::::::::::::::::::::
         ::                     SUMMARY                     ::
         :::::::::::::::::::::::::::::::::::::::::::::::::::::
         :: total energy             -18.776303924908 Eh    ::
         :: gradient norm              0.293957043064 Eh/a0 ::
         :: HOMO-LUMO gap              2.170283302453 eV    ::
         ::.................................................::
         :: SCC energy               -19.051333454953 Eh    ::
         :: -> isotropic ES            0.004467345810 Eh    ::
         :: -> anisotropic ES         -0.001072284155 Eh    ::
         :: -> anisotropic XC          0.016074271403 Eh    ::
         :: -> dispersion             -0.009909210254 Eh    ::
         :: repulsion energy           0.275029530045 Eh    ::
         :: add. restraining           0.000000000000 Eh    ::
         :: total charge               0.000000000000 e     ::
         :::::::::::::::::::::::::::::::::::::::::::::::::::::

      ----------------------------------------------------------- 
     |                       L-ANC optimizer                     |
      ----------------------------------------------------------- 
          low memory version by Sebastian Ehlert

          ...................................................
          :                      SETUP                      :
          :.................................................:
          :   energy convergence        0.5000000E-05 Eh    :
          :   grad. convergence         0.1000000E-02 Eh/a0 :
          :   optimization log               true           :
          :   writing optlog all                1     steps :
          :   Hessian reset                    25     steps :
          :   maximium step len.        1.0000000     a0    :
          :   LBFGS images                     25           :
          ...................................................
 * calculating model hessian...
Using Lindh-Hessian (1995)
 Shifting diagonal of input Hessian by    1.0000000000000000E-002
 Lowest  eigenvalues of input Hessian
    0.000000    0.000000    0.000000    0.000000    0.000000    0.000000
    0.025702    0.027494    0.037617    0.040635    0.051072    0.053219
    0.057403    0.064093    0.070252    0.072115    0.076067    0.087598
 Highest eigenvalues
    1.208127    1.248341    1.443815    1.550416    1.645405    1.780738


........................................................................
.............................. CYCLE    1 ..............................
........................................................................

 iter      E             dE          RMSdq      gap      omega  full diag
   1    -19.1392747 -0.191393E+02  0.726E-01    3.10       0.0  T
   2    -19.1392753 -0.575233E-06  0.454E-01    3.11       1.0  T
   3    -19.1378071  0.146823E-02  0.399E-01    3.11       1.0  T
   4    -19.1397171 -0.191001E-02  0.409E-02    3.11       1.0  T
   5    -19.1397347 -0.175763E-04  0.185E-02    3.11       1.4  T
   6    -19.1397357 -0.106955E-05  0.868E-03    3.11       3.0  T
   7    -19.1397362 -0.517202E-06  0.267E-03    3.11       9.7  T
   8    -19.1397363 -0.616980E-07  0.101E-03    3.11      25.5  T
   9    -19.1397363 -0.325090E-08  0.380E-04    3.11      67.9  T
  10    -19.1397363 -0.382226E-09  0.949E-05    3.11     272.2  T
     SCC iter.                  ...        0 min,  0.003 sec
     gradient                   ...        0 min,  0.001 sec
 * total energy  :   -18.8714811 Eh     change       -0.9517716E-01 Eh
   gradient norm :     0.1646495 Eh/a0  converged?    E=F G=F D=F
   step length   :     0.5428948 a0

........................................................................
.............................. CYCLE    2 ..............................
........................................................................

 iter      E             dE          RMSdq      gap      omega  full diag
   1    -19.2179289 -0.192179E+02  0.104E+00    4.76       0.0  T
   2    -19.2182657 -0.336781E-03  0.613E-01    4.78       1.0  T
   3    -19.2175477  0.717964E-03  0.264E-01    4.79       1.0  T
   4    -19.2183790 -0.831302E-03  0.433E-02    4.79       1.0  T
   5    -19.2184039 -0.249081E-04  0.144E-02    4.79       1.8  T
   6    -19.2184048 -0.824681E-06  0.629E-03    4.79       4.1  T
   7    -19.2184048 -0.373729E-07  0.207E-03    4.79      12.5  T
   8    -19.2184048 -0.248009E-07  0.560E-04    4.79      46.1  T
   9    -19.2184048 -0.701334E-09  0.238E-04    4.79     108.6  T
     SCC iter.                  ...        0 min,  0.002 sec
     gradient                   ...        0 min,  0.001 sec
 * total energy  :   -18.9449859 Eh     change       -0.7350486E-01 Eh
   gradient norm :     0.1008281 Eh/a0  converged?    E=F G=F D=F
   step length   :     1.7152094 a0

........................................................................
.............................. CYCLE    3 ..............................
........................................................................

 iter      E             dE          RMSdq      gap      omega  full diag
   1    -19.2404577 -0.192405E+02  0.899E-01    6.23       0.0  T
   2    -19.2410935 -0.635797E-03  0.519E-01    6.26       1.0  T
   3    -19.2408743  0.219207E-03  0.241E-01    6.25       1.0  T
   4    -19.2412544 -0.380066E-03  0.300E-02    6.26       1.0  T
   5    -19.2412644 -0.100075E-04  0.105E-02    6.26       2.5  T
   6    -19.2412649 -0.518367E-06  0.500E-03    6.26       5.2  T
   7    -19.2412649 -0.237409E-07  0.147E-03    6.26      17.6  T
   8    -19.2412649 -0.140431E-07  0.363E-04    6.26      71.2  T
   9    -19.2412649 -0.115467E-09  0.124E-04    6.26     207.7  T
     SCC iter.                  ...        0 min,  0.003 sec
     gradient                   ...        0 min,  0.001 sec
 * total energy  :   -18.9644484 Eh     change       -0.1946248E-01 Eh
   gradient norm :     0.1385506 Eh/a0  converged?    E=F G=F D=F
   step length   :     0.8901217 a0

........................................................................
.............................. CYCLE    4 ..............................
........................................................................

 iter      E             dE          RMSdq      gap      omega  full diag
   1    -19.2665237 -0.192665E+02  0.403E-01    6.55       0.0  T
   2    -19.2667682 -0.244503E-03  0.233E-01    6.57       1.0  T
   3    -19.2667667  0.149158E-05  0.124E-01    6.56       1.0  T
   4    -19.2668404 -0.736345E-04  0.133E-02    6.56       1.9  T
   5    -19.2668414 -0.101390E-05  0.602E-03    6.56       4.3  T
   6    -19.2668415 -0.151929E-06  0.280E-03    6.56       9.2  T
   7    -19.2668415 -0.124699E-07  0.538E-04    6.56      48.0  T
   8    -19.2668415 -0.169901E-08  0.239E-04    6.56     107.9  T
     SCC iter.                  ...        0 min,  0.002 sec
     gradient                   ...        0 min,  0.001 sec
 * total energy  :   -18.9764270 Eh     change       -0.1197860E-01 Eh
   gradient norm :     0.0964769 Eh/a0  converged?    E=F G=F D=F
   step length   :     0.3070385 a0

........................................................................
.............................. CYCLE    5 ..............................
........................................................................

 iter      E             dE          RMSdq      gap      omega  full diag
   1    -19.2694677 -0.192695E+02  0.566E-01    6.49       0.0  T
   2    -19.2697844 -0.316695E-03  0.341E-01    6.52       1.0  T
   3    -19.2697344  0.500747E-04  0.152E-01    6.50       1.0  T
   4    -19.2698840 -0.149654E-03  0.168E-02    6.51       1.5  T
   5    -19.2698845 -0.440362E-06  0.812E-03    6.51       3.2  T
   6    -19.2698847 -0.242497E-06  0.152E-03    6.51      17.0  T
   7    -19.2698847 -0.807682E-08  0.682E-04    6.51      37.9  T
   8    -19.2698847 -0.510184E-09  0.219E-04    6.51     117.9  T
     SCC iter.                  ...        0 min,  0.002 sec
     gradient                   ...        0 min,  0.001 sec
 * total energy  :   -18.9822925 Eh     change       -0.5865490E-02 Eh
   gradient norm :     0.0704081 Eh/a0  converged?    E=F G=F D=F
   step length   :     0.5553281 a0

........................................................................
.............................. CYCLE    6 ..............................
........................................................................

 iter      E             dE          RMSdq      gap      omega  full diag
   1    -19.2829823 -0.192830E+02  0.392E-01    6.81       0.0  T
   2    -19.2830675 -0.851450E-04  0.221E-01    6.82       1.0  T
   3    -19.2830434  0.240420E-04  0.852E-02    6.81       1.0  T
   4    -19.2830875 -0.440299E-04  0.894E-03    6.82       2.9  T
   5    -19.2830877 -0.194282E-06  0.451E-03    6.82       5.7  T
   6    -19.2830877 -0.516311E-07  0.116E-03    6.82      22.3  T
   7    -19.2830877 -0.466189E-08  0.429E-04    6.82      60.2  T
   8    -19.2830877 -0.434991E-09  0.180E-04    6.82     143.7  T
     SCC iter.                  ...        0 min,  0.002 sec
     gradient                   ...        0 min,  0.001 sec
 * total energy  :   -18.9910628 Eh     change       -0.8770267E-02 Eh
   gradient norm :     0.0491598 Eh/a0  converged?    E=F G=F D=F
   step length   :     0.3455448 a0

........................................................................
.............................. CYCLE    7 ..............................
........................................................................

 iter      E             dE          RMSdq      gap      omega  full diag
   1    -19.3031931 -0.193032E+02  0.325E-01    7.00       0.0  T
   2    -19.3032782 -0.850913E-04  0.201E-01    7.00       1.0  T
   3    -19.3032587  0.195284E-04  0.795E-02    7.00       1.0  T
   4    -19.3033025 -0.438088E-04  0.940E-03    7.00       2.7  T
   5    -19.3033027 -0.172548E-06  0.478E-03    7.00       5.4  T
   6    -19.3033028 -0.666511E-07  0.676E-04    7.00      38.2  T
   7    -19.3033028 -0.670497E-09  0.326E-04    7.00      79.1  T
     SCC iter.                  ...        0 min,  0.002 sec
     gradient                   ...        0 min,  0.001 sec
 * total energy  :   -18.9915331 Eh     change       -0.4703135E-03 Eh
   gradient norm :     0.0610478 Eh/a0  converged?    E=F G=F D=F
   step length   :     0.2903156 a0

........................................................................
.............................. CYCLE    8 ..............................
........................................................................

 iter      E             dE          RMSdq      gap      omega  full diag
   1    -19.2952239 -0.192952E+02  0.291E-01    7.01       0.0  T
   2    -19.2952684 -0.445074E-04  0.163E-01    7.02       1.0  T
   3    -19.2952563  0.120568E-04  0.600E-02    7.01       1.0  T
   4    -19.2952782 -0.218344E-04  0.752E-03    7.02       3.4  T
   5    -19.2952782 -0.605092E-07  0.331E-03    7.02       7.8  T
   6    -19.2952782 -0.139187E-07  0.116E-03    7.02      22.3  T
   7    -19.2952782 -0.745395E-08  0.289E-04    7.02      89.2  T
   8    -19.2952782 -0.955289E-10  0.134E-04    7.02     193.3  T
     SCC iter.                  ...        0 min,  0.002 sec
     gradient                   ...        0 min,  0.001 sec
 * total energy  :   -18.9954326 Eh     change       -0.3899472E-02 Eh
   gradient norm :     0.0373092 Eh/a0  converged?    E=F G=F D=F
   step length   :     0.2703274 a0

........................................................................
.............................. CYCLE    9 ..............................
........................................................................

 iter      E             dE          RMSdq      gap      omega  full diag
   1    -19.2947328 -0.192947E+02  0.110E-01    6.93       0.0  T
   2    -19.2947467 -0.139376E-04  0.635E-02    6.94       1.0  T
   3    -19.2947463  0.452789E-06  0.299E-02    6.94       1.0  T
   4    -19.2947499 -0.357961E-05  0.316E-03    6.94       8.2  T
   5    -19.2947499 -0.333118E-07  0.156E-03    6.94      16.6  T
   6    -19.2947499 -0.556594E-08  0.367E-04    6.94      70.3  T
   7    -19.2947499 -0.660485E-09  0.136E-04    6.94     190.5  T
     SCC iter.                  ...        0 min,  0.002 sec
     gradient                   ...        0 min,  0.001 sec
 * total energy  :   -18.9965694 Eh     change       -0.1136867E-02 Eh
   gradient norm :     0.0201535 Eh/a0  converged?    E=F G=F D=F
   step length   :     0.1007907 a0

........................................................................
.............................. CYCLE   10 ..............................
........................................................................

 iter      E             dE          RMSdq      gap      omega  full diag
   1    -19.2966879 -0.192967E+02  0.117E-01    7.02       0.0  T
   2    -19.2966999 -0.119853E-04  0.653E-02    7.03       1.0  T
   3    -19.2966982  0.169463E-05  0.312E-02    7.02       1.0  T
   4    -19.2967033 -0.506896E-05  0.166E-03    7.02      15.5  T
   5    -19.2967033 -0.157085E-07  0.897E-04    7.02      28.8  T
   6    -19.2967033 -0.129480E-08  0.196E-04    7.02     131.5  T
     SCC iter.                  ...        0 min,  0.002 sec
     gradient                   ...        0 min,  0.001 sec
 * total energy  :   -18.9973740 Eh     change       -0.8045172E-03 Eh
   gradient norm :     0.0124331 Eh/a0  converged?    E=F G=F D=F
   step length   :     0.1001986 a0

........................................................................
.............................. CYCLE   11 ..............................
........................................................................

 iter      E             dE          RMSdq      gap      omega  full diag
   1    -19.2959700 -0.192960E+02  0.141E-01    7.01       0.0  T
   2    -19.2959756 -0.557959E-05  0.806E-02    7.01       1.0  T
   3    -19.2959714  0.423117E-05  0.252E-02    7.01       1.0  T
   4    -19.2959774 -0.601761E-05  0.159E-03    7.01      16.2  T
   5    -19.2959774 -0.563337E-08  0.879E-04    7.01      29.4  T
   6    -19.2959774 -0.109428E-08  0.275E-04    7.01      94.0  T
     SCC iter.                  ...        0 min,  0.002 sec
     gradient                   ...        0 min,  0.001 sec
 * total energy  :   -18.9977737 Eh     change       -0.3997373E-03 Eh
   gradient norm :     0.0093944 Eh/a0  converged?    E=F G=F D=F
   step length   :     0.1391110 a0

........................................................................
.............................. CYCLE   12 ..............................
........................................................................

 iter      E             dE          RMSdq      gap      omega  full diag
   1    -19.2964485 -0.192964E+02  0.345E-02    7.05       0.0  T
   2    -19.2964496 -0.109440E-05  0.197E-02    7.05       1.3  T
   3    -19.2964495  0.112457E-06  0.922E-03    7.05       2.8  T
   4    -19.2964499 -0.408777E-06  0.469E-04    7.05      55.1  T
   5    -19.2964499 -0.588848E-09  0.269E-04    7.05      96.2  T
     SCC iter.                  ...        0 min,  0.001 sec
     gradient                   ...        0 min,  0.001 sec
 * total energy  :   -18.9978555 Eh     change       -0.8182787E-04 Eh
   gradient norm :     0.0055342 Eh/a0  converged?    E=F G=F D=F
   step length   :     0.0317967 a0

........................................................................
.............................. CYCLE   13 ..............................
........................................................................

 iter      E             dE          RMSdq      gap      omega  full diag
   1    -19.2962751 -0.192963E+02  0.256E-02    7.04       0.0  T
   2    -19.2962757 -0.577770E-06  0.149E-02    7.04       1.7  T
   3    -19.2962756  0.904557E-07  0.693E-03    7.04       3.7  T
   4    -19.2962759 -0.269031E-06  0.315E-04    7.04      82.1  T
   5    -19.2962759 -0.211365E-09  0.165E-04    7.04     156.8  T
     SCC iter.                  ...        0 min,  0.001 sec
     gradient                   ...        0 min,  0.001 sec
 * total energy  :   -18.9978964 Eh     change       -0.4085260E-04 Eh
   gradient norm :     0.0026687 Eh/a0  converged?    E=F G=F D=F
   step length   :     0.0272291 a0

........................................................................
.............................. CYCLE   14 ..............................
........................................................................

 iter      E             dE          RMSdq      gap      omega  full diag
   1    -19.2961204 -0.192961E+02  0.130E-02    7.04       0.0  T
   2    -19.2961206 -0.134787E-06  0.767E-03    7.04       3.4  T
   3    -19.2961205  0.294753E-07  0.329E-03    7.04       7.8  T
   4    -19.2961206 -0.685673E-07  0.211E-04    7.04     122.5  T
   5    -19.2961206 -0.163816E-09  0.114E-04    7.04     225.5  T
     SCC iter.                  ...        0 min,  0.001 sec
     gradient                   ...        0 min,  0.001 sec
 * total energy  :   -18.9979078 Eh     change       -0.1147820E-04 Eh
   gradient norm :     0.0013562 Eh/a0  converged?    E=F G=F D=F
   step length   :     0.0176699 a0

........................................................................
.............................. CYCLE   15 ..............................
........................................................................

 iter      E             dE          RMSdq      gap      omega  full diag
   1    -19.2961477 -0.192961E+02  0.102E-02    7.04       0.0  T
   2    -19.2961478 -0.898727E-07  0.591E-03    7.04       4.4  T
   3    -19.2961477  0.132900E-07  0.248E-03    7.04      10.4  T
   4    -19.2961478 -0.351265E-07  0.184E-04    7.04     140.0  T
   5    -19.2961478 -0.115488E-09  0.911E-05    7.04     283.3  T
     SCC iter.                  ...        0 min,  0.001 sec
     gradient                   ...        0 min,  0.001 sec
 * total energy  :   -18.9979123 Eh     change       -0.4469064E-05 Eh
   gradient norm :     0.0011680 Eh/a0  converged?    E=T G=F D=F
   step length   :     0.0181030 a0

........................................................................
.............................. CYCLE   16 ..............................
........................................................................

 iter      E             dE          RMSdq      gap      omega  full diag
   1    -19.2961733 -0.192962E+02  0.790E-03    7.04       0.0  T
   2    -19.2961733 -0.708693E-07  0.466E-03    7.04       5.5  T
   3    -19.2961733  0.454493E-08  0.220E-03    7.04      11.7  T
   4    -19.2961733 -0.251951E-07  0.135E-04    7.04     190.6  T
   5    -19.2961733 -0.629363E-10  0.665E-05    7.04     388.5  T
     SCC iter.                  ...        0 min,  0.001 sec
     gradient                   ...        0 min,  0.001 sec
 * total energy  :   -18.9979146 Eh     change       -0.2317793E-05 Eh
   gradient norm :     0.0007296 Eh/a0  converged?    E=T G=T D=F
   step length   :     0.0115128 a0

   *** GEOMETRY OPTIMIZATION CONVERGED AFTER 16 CYCLES ***

------------------------------------------------------------------------
 total energy gain   :        -0.2216107 Eh     -139.0628 kcal/mol
 total RMSD          :         0.7169071 a0        0.3794 Å
 total power (kW/mol):       -36.3649273 (step)-9014.6129 (real)
------------------------------------------------------------------------

 L-ANCopt (total)              0 d,  0 h,  0 min,  0.065 sec
 setup                          ...        0 min,  0.000 sec (  0.148%)
 model hessian                  ...        0 min,  0.003 sec (  3.875%)
 ANC generation                 ...        0 min,  0.000 sec (  0.265%)
 coordinate transformation      ...        0 min,  0.000 sec (  0.058%)
 Rational function              ...        0 min,  0.000 sec (  0.045%)
 singlepoint calculation        ...        0 min,  0.061 sec ( 94.571%)
 optimization log               ...        0 min,  0.000 sec (  0.700%)
 hessian update                 ...        0 min,  0.000 sec (  0.051%)

================
 final structure:
================
15
 xtb: 6.7.1 (unknown)
C           -0.65087537102351       -0.85099637777414       -0.84225966400018
C           -0.54005261101820       -0.98101189307416        0.65149616463511
C            0.85958411364546       -0.60152636313930       -0.93221854750009
C            0.97012442894109       -0.73093552631681        0.56143073943235
C           -1.15923734896643        0.25065137968211        0.04798130393373
C            1.08615233197348        0.62232270512088       -0.08598282557706
C           -0.19091909884182        1.40386063658440        0.07561253426297
H           -1.24352562788462       -1.40153523423380       -1.55035329596827
H           -1.02974049666597       -1.65246788562015        1.33420108521956
H            1.51076916850845       -0.94461863482064       -1.71552055213143
H            1.72484593446859       -1.19626711785660        1.16934294099499
H           -2.22061376442230        0.42189319038811        0.14176535674662
H            2.03901823958202        1.12755726533720       -0.11180131290758
H           -0.35487120145100        2.10148295692638       -0.74735043889619
H           -0.22575949095156        1.95064245403065        1.01926906599865

 Bond Distances (Angstroems)
 ---------------------------
C1-C2=1.5035         C1-C3=1.5336         C1-C5=1.5049         C1-H8=1.0750         C2-C1=1.5035         C2-C4=1.5334         
C2-C5=1.5049         C2-H9=1.0755         C3-C1=1.5336         C3-C4=1.5033         C3-C6=1.5051         C3-H10=1.0749        
C4-C2=1.5334         C4-C3=1.5033         C4-C6=1.5046         C4-H11=1.0750        C5-C1=1.5049         C5-C2=1.5049         
C5-C7=1.5061         C5-H12=1.0792        C6-C3=1.5051         C6-C4=1.5046         C6-C7=1.5059         C6-H13=1.0788        
C7-C5=1.5061         C7-C6=1.5059         C7-H14=1.0912        C7-H15=1.0912        H8-C1=1.0750         H9-C2=1.0755         
H10-C3=1.0749        H11-C4=1.0750        H12-C5=1.0792        H13-C6=1.0788        H14-C7=1.0912        H15-C7=1.0912        
 C  H  Rav=1.0801 sigma=0.0066  Rmin=1.0749  Rmax=1.0912     8
 C  C  Rav=1.5105 sigma=0.0115  Rmin=1.5033  Rmax=1.5336    10

 selected bond angles (degree)
 --------------------
C3-C1-C2= 89.99                C5-C1-C2= 60.03                C5-C1-C3=104.38                H8-C1-C2=130.60                
H8-C1-C3=125.99                H8-C1-C5=125.33                C4-C2-C1= 90.01                C5-C2-C1= 60.03                
C5-C2-C4=104.37                H9-C2-C1=130.62                H9-C2-C4=125.98                H9-C2-C5=125.32                
C4-C3-C1= 90.01                C6-C3-C1=104.33                C6-C3-C4= 60.02                H10-C3-C1=125.98               
H10-C3-C4=130.70               H10-C3-C6=125.32               C3-C4-C2= 90.00                C6-C4-C2=104.35                
C6-C4-C3= 60.05                H11-C4-C2=125.99               H11-C4-C3=130.60               H11-C4-C6=125.34               
C2-C5-C1= 59.94                C7-C5-C1=110.74                C7-C5-C2=110.78                H12-C5-C1=119.99               
H12-C5-C2=119.98               H12-C5-C7=120.61               C4-C6-C3= 59.93                C7-C6-C3=110.77                
C7-C6-C4=110.81                H13-C6-C3=120.02               H13-C6-C4=119.97               H13-C6-C7=120.57               
C6-C7-C5= 98.39                H14-C7-C5=112.28               H14-C7-C6=112.23               H15-C7-C5=112.27               
H15-C7-C6=112.33               H15-C7-H14=109.09              

 selected dihedral angles (degree)
 ---------------------------------
C4-C2-C1-C3=  0.02            C4-C2-C1-C5=253.36            C4-C2-C1-H8=140.71            C5-C2-C1-C3=106.67            
C5-C2-C1-H8=247.36            H9-C2-C1-C3=219.29            H9-C2-C1-C5=112.63            H9-C2-C1-H8=  0.00            
C4-C3-C1-C2=359.98            C4-C3-C1-C5= 58.93            C4-C3-C1-H8=216.45            C6-C3-C1-C2=301.02            
C6-C3-C1-C5=359.97            C6-C3-C1-H8=157.50            H10-C3-C1-C2=143.67           H10-C3-C1-C5=202.62           
H10-C3-C1-H8=  0.15           C3-C4-C2-C1=359.98            C3-C4-C2-C5=301.02            C3-C4-C2-H9=143.56            
C6-C4-C2-C1= 58.95            C6-C4-C2-C5=  0.00            C6-C4-C2-H9=202.53            H11-C4-C2-C1=216.44           
H11-C4-C2-C5=157.48           H11-C4-C2-H9=  0.00           C2-C4-C3-C1=  0.02            C2-C4-C3-C6=106.63            
C2-C4-C3-H10=219.22           C6-C4-C3-C1=253.40            C6-C4-C3-H10=112.59           H11-C4-C3-C1=140.73           
H11-C4-C3-C6=247.33           H11-C4-C3-H10=359.92          C2-C5-C1-C3=278.52            C2-C5-C1-H8=120.80            
C7-C5-C1-C2=102.66            C7-C5-C1-C3= 21.18            C7-C5-C1-H8=223.46            H12-C5-C1-C2=250.57           
H12-C5-C1-C3=169.09           H12-C5-C1-H8= 11.37           C1-C5-C2-C4= 81.51            C1-C5-C2-H9=239.17            
C7-C5-C2-C1=257.40            C7-C5-C2-C4=338.92            C7-C5-C2-H9=136.57            H12-C5-C2-C1=109.44           
H12-C5-C2-C4=190.95           H12-C5-C2-H9=348.61           C4-C6-C3-C1= 81.53            C4-C6-C3-H10=239.08           
C7-C6-C3-C1=338.86            C7-C6-C3-C4=257.33            C7-C6-C3-H10=136.41           H13-C6-C3-C1=190.94           
H13-C6-C3-C4=109.40           H13-C6-C3-H10=348.48          C3-C6-C4-C2=278.48            C3-C6-C4-H11=120.80           
C7-C6-C4-C2= 21.10            C7-C6-C4-C3=102.62            C7-C6-C4-H11=223.42           H13-C6-C4-C2=169.00           
H13-C6-C4-C3=250.52           H13-C6-C4-H11= 11.32          C6-C7-C5-C1=327.65            C6-C7-C5-C2= 32.23            
C6-C7-C5-H12=179.96           H14-C7-C5-C1= 85.91           H14-C7-C5-C2=150.50           H14-C7-C5-H12=298.23          
H15-C7-C5-C1=209.26           H15-C7-C5-C2=273.85           H15-C7-C5-H12= 61.58          C5-C7-C6-C3= 32.34            
C5-C7-C6-C4=327.76            C5-C7-C6-H13=180.07           H14-C7-C6-C3=274.04           H14-C7-C6-C4=209.45           
H14-C7-C6-H13= 61.76          H15-C7-C6-C3=150.69           H15-C7-C6-C4= 86.10           H15-C7-C6-H13=298.41          
           -------------------------------------------------
          |                Final Singlepoint                |
           -------------------------------------------------

          ...................................................
          :                      SETUP                      :
          :.................................................:
          :  # basis functions                  36          :
          :  # atomic orbitals                  36          :
          :  # shells                           22          :
          :  # electrons                        36          :
          :  max. iterations                   250          :
          :  Hamiltonian                  GFN2-xTB          :
          :  restarted?                      false          :
          :  GBSA solvation                  false          :
          :  PC potential                    false          :
          :  electronic temp.          300.0000000     K    :
          :  accuracy                    1.0000000          :
          :  -> integral cutoff          0.2500000E+02      :
          :  -> integral neglect         0.1000000E-07      :
          :  -> SCF convergence          0.1000000E-05 Eh   :
          :  -> wf. convergence          0.1000000E-03 e    :
          :  Broyden damping             0.4000000          :
          :  net charge                          0          :
          :  unpaired electrons                  0          :
          ...................................................

 iter      E             dE          RMSdq      gap      omega  full diag
   1    -19.2961733 -0.192962E+02  0.256E-05    7.04       0.0  T
   2    -19.2961733 -0.994760E-12  0.137E-05    7.04    1891.3  T
   3    -19.2961733 -0.319744E-13  0.801E-06    7.04    3224.5  T

   *** convergence criteria satisfied after 3 iterations ***

         #    Occupation            Energy/Eh            Energy/eV
      -------------------------------------------------------------
         1        2.0000           -0.6676745             -18.1683
       ...           ...                  ...                  ...
        12        2.0000           -0.4700170             -12.7898
        13        2.0000           -0.4469367             -12.1618
        14        2.0000           -0.4346930             -11.8286
        15        2.0000           -0.4324523             -11.7676
        16        2.0000           -0.4080522             -11.1037
        17        2.0000           -0.4011308             -10.9153
        18        2.0000           -0.3644514              -9.9172 (HOMO)
        19                         -0.1057367              -2.8772 (LUMO)
        20                         -0.0106814              -0.2907
        21                          0.0155235               0.4224
        22                          0.0929873               2.5303
        23                          0.1038809               2.8267
       ...                                ...                  ...
        36                          0.5752879              15.6544
      -------------------------------------------------------------
                  HL-Gap            0.2587146 Eh            7.0400 eV
             Fermi-level           -0.2350940 Eh           -6.3972 eV

 SCC (total)                   0 d,  0 h,  0 min,  0.003 sec
 SCC setup                      ...        0 min,  0.000 sec (  0.864%)
 Dispersion                     ...        0 min,  0.000 sec (  0.784%)
 classical contributions        ...        0 min,  0.000 sec (  0.374%)
 integral evaluation            ...        0 min,  0.000 sec ( 17.409%)
 iterations                     ...        0 min,  0.001 sec ( 28.697%)
 molecular gradient             ...        0 min,  0.001 sec ( 50.597%)
 printout                       ...        0 min,  0.000 sec (  1.007%)

         :::::::::::::::::::::::::::::::::::::::::::::::::::::
         ::                     SUMMARY                     ::
         :::::::::::::::::::::::::::::::::::::::::::::::::::::
         :: total energy             -18.997914633778 Eh    ::
         :: gradient norm              0.000731519235 Eh/a0 ::
         :: HOMO-LUMO gap              7.039983744246 eV    ::
         ::.................................................::
         :: SCC energy               -19.296158686177 Eh    ::
         :: -> isotropic ES            0.001883055983 Eh    ::
         :: -> anisotropic ES          0.001992005410 Eh    ::
         :: -> anisotropic XC          0.010587815557 Eh    ::
         :: -> dispersion             -0.009955050713 Eh    ::
         :: repulsion energy           0.298244052400 Eh    ::
         :: add. restraining           0.000000000000 Eh    ::
         :: total charge              -0.000000000000 e     ::
         :::::::::::::::::::::::::::::::::::::::::::::::::::::

           ------------------------------------------------- 
          |                Numerical Hessian                |
           ------------------------------------------------- 
step length          :   0.00500
SCC accuracy         :   0.30000
Hessian scale factor :   1.00000
frozen atoms in %    :   0.00000    0
RMS gradient         :   0.00073
estimated CPU  time      0.01 min
estimated wall time      0.01 min

writing file <hessian>.

 projected vibrational frequencies (cm⁻¹)
eigval :       -0.00    -0.00    -0.00     0.00     0.00     0.00
eigval :      374.52   522.65   673.96   715.41   755.23   821.33
eigval :      845.23   870.51   905.83   914.27   968.20   969.35
eigval :      973.77   986.10   991.09   993.87  1022.07  1048.96
eigval :     1049.28  1065.73  1075.51  1133.64  1138.29  1174.87
eigval :     1204.81  1219.03  1268.64  1278.99  1390.91  1412.39
eigval :     1475.98  2972.27  2988.66  3086.49  3090.76  3104.04
eigval :     3113.20  3116.98  3123.50
           -------------------------------------------------
          |                Property Printout                |
           -------------------------------------------------

    * Orbital Energies and Occupations

         #    Occupation            Energy/Eh            Energy/eV
      -------------------------------------------------------------
         1        2.0000           -0.6676745             -18.1683
       ...           ...                  ...                  ...
         6        2.0000           -0.5540152             -15.0755
         7        2.0000           -0.5367883             -14.6068
         8        2.0000           -0.5360052             -14.5854
         9        2.0000           -0.4996829             -13.5971
        10        2.0000           -0.4915119             -13.3747
        11        2.0000           -0.4857165             -13.2170
        12        2.0000           -0.4700170             -12.7898
        13        2.0000           -0.4469367             -12.1618
        14        2.0000           -0.4346931             -11.8286
        15        2.0000           -0.4324523             -11.7676
        16        2.0000           -0.4080522             -11.1037
        17        2.0000           -0.4011308             -10.9153
        18        2.0000           -0.3644514              -9.9172 (HOMO)
        19                         -0.1057367              -2.8772 (LUMO)
        20                         -0.0106814              -0.2907
        21                          0.0155235               0.4224
        22                          0.0929873               2.5303
        23                          0.1038808               2.8267
        24                          0.1110105               3.0207
        25                          0.1125387               3.0623
        26                          0.1432672               3.8985
        27                          0.1481560               4.0315
        28                          0.1601574               4.3581
        29                          0.2089963               5.6871
       ...                                ...                  ...
        36                          0.5752879              15.6544
      -------------------------------------------------------------
                  HL-Gap            0.2587147 Eh            7.0400 eV
             Fermi-level           -0.2350941 Eh           -6.3972 eV

     #   Z          covCN         q      C6AA      α(0)
     1   6 C        4.089    -0.034    21.102     6.525
     2   6 C        4.089    -0.034    21.100     6.524
     3   6 C        4.089    -0.034    21.102     6.525
     4   6 C        4.088    -0.034    21.099     6.524
     5   6 C        3.956    -0.023    20.911     6.498
     6   6 C        3.956    -0.023    20.912     6.498
     7   6 C        3.824    -0.057    21.583     6.611
     8   1 H        0.926     0.026     2.642     2.542
     9   1 H        0.926     0.026     2.643     2.542
    10   1 H        0.926     0.026     2.642     2.542
    11   1 H        0.926     0.026     2.642     2.542
    12   1 H        0.926     0.030     2.588     2.516
    13   1 H        0.926     0.030     2.588     2.515
    14   1 H        0.924     0.038     2.475     2.460
    15   1 H        0.924     0.038     2.475     2.460

 Mol. C6AA /au·bohr⁶  :       2022.463597
 Mol. C8AA /au·bohr⁸  :      47299.881826
 Mol. α(0) /au        :         65.823873


Wiberg/Mayer (AO) data.
largest (>0.10) Wiberg bond orders for each atom

 ---------------------------------------------------------------------------
     #   Z sym  total        # sym  WBO       # sym  WBO       # sym  WBO
 ---------------------------------------------------------------------------
     1   6 C    3.933 --     3 C    0.983     8 H    0.974     2 C    0.962
                             5 C    0.959
     2   6 C    3.933 --     4 C    0.983     9 H    0.974     1 C    0.962
                             5 C    0.959
     3   6 C    3.933 --     1 C    0.983    10 H    0.974     4 C    0.962
                             6 C    0.959
     4   6 C    3.933 --     2 C    0.983    11 H    0.974     3 C    0.962
                             6 C    0.959
     5   6 C    3.949 --     7 C    1.007    12 H    0.972     2 C    0.959
                             1 C    0.959
     6   6 C    3.949 --     7 C    1.007    13 H    0.972     4 C    0.959
                             3 C    0.959
     7   6 C    3.998 --     6 C    1.007     5 C    1.007    15 H    0.969
                            14 H    0.969
     8   1 H    0.999 --     1 C    0.974
     9   1 H    0.999 --     2 C    0.974
    10   1 H    0.999 --     3 C    0.974
    11   1 H    0.999 --     4 C    0.974
    12   1 H    0.999 --     5 C    0.972
    13   1 H    0.999 --     6 C    0.972
    14   1 H    0.999 --     7 C    0.969
    15   1 H    0.999 --     7 C    0.969
 ---------------------------------------------------------------------------

Topologies differ in total number of bonds
Writing topology from bond orders to xtbtopo.mol

molecular dipole:
                 x           y           z       tot (Debye)
 q only:       -0.022       0.139       0.013
   full:       -0.010       0.066       0.006       0.170
molecular quadrupole (traceless):
                xx          xy          yy          xz          yz          zz
 q only:        0.272       0.029       0.197      -0.049       0.032      -0.469
  q+dip:        1.550       0.376      -0.609      -0.152      -0.010      -0.941
   full:        1.502       0.336      -0.413      -0.163       0.023      -1.089

           -------------------------------------------------
          |                Geometry Summary                 |
           -------------------------------------------------

      molecular mass/u    :       92.1386773
   center of mass at/Å    :        0.0510424      -0.1112592      -0.0733352
  moments of inertia/u·Å² :        0.1132856E+03   0.1140085E+03   0.1528199E+03
rotational constants/cm⁻¹ :        0.1488065E+00   0.1478629E+00   0.1103104E+00

 * 18 selected distances

     #   Z          #   Z                                           value/Å
     1   6 C        2   6 C                                       1.5034935
     1   6 C        3   6 C                                       1.5335632 (max)
     2   6 C        4   6 C                                       1.5333901
     3   6 C        4   6 C                                       1.5033145
     1   6 C        5   6 C                                       1.5048552
     2   6 C        5   6 C                                       1.5048637
     3   6 C        6   6 C                                       1.5050764
     4   6 C        6   6 C                                       1.5046312
     5   6 C        7   6 C                                       1.5060862
     6   6 C        7   6 C                                       1.5059304
     1   6 C        8   1 H                                       1.0750461
     2   6 C        9   1 H                                       1.0755155
     3   6 C       10   1 H                                       1.0748565 (min)
     4   6 C       11   1 H                                       1.0750328
     5   6 C       12   1 H                                       1.0791846
     6   6 C       13   1 H                                       1.0788337
     7   6 C       14   1 H                                       1.0912495
     7   6 C       15   1 H                                       1.0911792

 * 2 distinct bonds (by element types)

   Z      Z             #   av. dist./Å        max./Å        min./Å
   1 H    6 C           8     1.0801122     1.0912495     1.0748565
   6 C    6 C          10     1.5105204     1.5335632     1.5033145

           -------------------------------------------------
          |               Frequency Printout                |
           -------------------------------------------------
 projected vibrational frequencies (cm⁻¹)
eigval :       -0.00    -0.00    -0.00     0.00     0.00     0.00
eigval :      374.52   522.65   673.96   715.41   755.23   821.33
eigval :      845.23   870.51   905.83   914.27   968.20   969.35
eigval :      973.77   986.10   991.09   993.87  1022.07  1048.96
eigval :     1049.28  1065.73  1075.51  1133.64  1138.29  1174.87
eigval :     1204.81  1219.03  1268.64  1278.99  1390.91  1412.39
eigval :     1475.98  2972.27  2988.66  3086.49  3090.76  3104.04
eigval :     3113.20  3116.98  3123.50
 reduced masses (amu)
   1:  9.66   2: 10.27   3: 10.38   4: 10.81   5: 10.50   6:  9.81   7:  6.54   8:  8.78
   9: 11.40  10: 10.66  11:  9.95  12:  3.45  13:  5.50  14:  3.16  15:  3.85  16:  6.36
  17:  4.59  18:  3.16  19:  6.08  20:  4.04  21:  9.19  22:  4.43  23:  6.08  24:  6.41
  25:  3.79  26:  8.08  27:  3.02  28:  3.22  29:  9.70  30:  5.67  31:  6.12  32:  7.87
  33:  6.92  34:  8.43  35: 11.07  36: 10.75  37:  2.10  38:  2.00  39:  1.48  40:  1.82
  41:  1.82  42:  1.81  43:  1.85  44:  1.90  45:  1.95
 IR intensities (km·mol⁻¹)
   1:  0.00   2:  0.00   3:  0.01   4:  0.00   5:  0.00   6:  0.01   7:  0.62   8:  0.00
   9:  0.11  10:  0.07  11:  0.00  12:  0.72  13: 12.63  14:  5.27  15:  0.00  16:  0.40
  17:  1.70  18:  0.07  19:  3.51  20:  0.01  21:  0.03  22:  1.53  23:  5.52  24:  0.00
  25:  0.10  26:  3.60  27:  0.29  28:  0.00  29:  0.01  30:  0.00  31:  0.20  32:  0.75
  33:  1.01  34:  0.84  35:  4.19  36:  1.29  37:  0.07  38: 47.21  39: 44.61  40: 31.75
  41: 21.23  42:  5.98  43: 76.76  44: 95.56  45: 38.39
 Raman intensities (Ä⁴*amu⁻¹)
   1:  0.00   2:  0.00   3:  0.00   4:  0.00   5:  0.00   6:  0.00   7:  0.00   8:  0.00
   9:  0.00  10:  0.00  11:  0.00  12:  0.00  13:  0.00  14:  0.00  15:  0.00  16:  0.00
  17:  0.00  18:  0.00  19:  0.00  20:  0.00  21:  0.00  22:  0.00  23:  0.00  24:  0.00
Molecule has the following symmetry elements: (C2) 2*(sigma) 
It seems to be the C2v point group
  25:  0.00  26:  0.00  27:  0.00  28:  0.00  29:  0.00  30:  0.00  31:  0.00  32:  0.00
  33:  0.00  34:  0.00  35:  0.00  36:  0.00  37:  0.00  38:  0.00  39:  0.00  40:  0.00
  41:  0.00  42:  0.00  43:  0.00  44:  0.00  45:  0.00
 output can be read by thermo (or use thermo option).
 writing <g98.out> molden fake output.
 recommended (thermochemical) frequency scaling factor: 1.0
           -------------------------------------------------
          |             Thermodynamic Functions             |
           -------------------------------------------------

c2v symmetry found (for desy threshold:  0.10E+00) used in thermo

          ...................................................
          :                      SETUP                      :
          :.................................................:
          :  # frequencies                          39      :
          :  # imaginary freq.                       0      :
          :  linear?                             false      :
          :  only rotor calc.                    false      :
          :  symmetry                              c2v      :
          :  rotational number                       2      :
          :  scaling factor                  1.0000000      :
          :  rotor cutoff                   50.0000000 cm⁻¹ :
          :  imag. cutoff                  -20.0000000 cm⁻¹ :
          :.................................................:

    mode    ω/cm⁻¹     T·S(HO)/kcal·mol⁻¹    T·S(FR)/kcal·mol⁻¹   T·S(vib)
   ------------------------------------------------------------------------
   ------------------------------------------------------------------------

   temp. (K)  partition function   enthalpy   heat capacity  entropy
                                   cal/mol     cal/K/mol   cal/K/mol   J/K/mol
 298.15  VIB   1.73                 1064.711     13.590      4.658
         ROT  0.537E+05              888.752      2.981     24.623
         INT  0.927E+05             1953.463     16.571     29.281
         TR   0.856E+27             1481.254      4.968     39.456
         TOT                        3434.7170    21.5390    68.7373   287.5967

       T/K    H(0)-H(T)+PV         H(T)/Eh          T*S/Eh         G(T)/Eh
   ------------------------------------------------------------------------
    298.15    0.547357E-02    0.132678E+00    0.326593E-01    0.100019E+00
   ------------------------------------------------------------------------

         :::::::::::::::::::::::::::::::::::::::::::::::::::::
         ::                  THERMODYNAMIC                  ::
         :::::::::::::::::::::::::::::::::::::::::::::::::::::
         :: total free energy         -18.897895840924 Eh   ::
         ::.................................................::
         :: total energy              -18.997914633778 Eh   ::
         :: zero point energy           0.127204512479 Eh   ::
         :: G(RRHO) w/o ZPVE           -0.027185719626 Eh   ::
         :: G(RRHO) contrib.            0.100018792854 Eh   ::
         :::::::::::::::::::::::::::::::::::::::::::::::::::::

optimized geometry written to: xtbopt.xyz


           -------------------------------------------------
          | TOTAL ENERGY              -18.997914633778 Eh   |
          | TOTAL ENTHALPY            -18.865236551325 Eh   |
          | TOTAL FREE ENERGY         -18.897895840924 Eh   |
          | GRADIENT NORM               0.000731536556 Eh/α |
          | HOMO-LUMO GAP               7.039984048672 eV   |
           -------------------------------------------------

------------------------------------------------------------------------
 * finished run on 2026/09/04 at 18:38:17.277     
------------------------------------------------------------------------
 total:
 * wall-time:     0 d,  0 h,  0 min,  0.387 sec
 *  cpu-time:     0 d,  0 h,  0 min,  0.564 sec
 * ratio c/w:     1.457 speedup
 SCF:
 * wall-time:     0 d,  0 h,  0 min,  0.005 sec
 *  cpu-time:     0 d,  0 h,  0 min,  0.008 sec
 * ratio c/w:     1.485 speedup
 ANC optimizer:
 * wall-time:     0 d,  0 h,  0 min,  0.068 sec
Note: The following floating-point exceptions are signalling: IEEE_UNDERFLOW_FLAG
normal termination of xtb
 *  cpu-time:     0 d,  0 h,  0 min,  0.097 sec
 * ratio c/w:     1.434 speedup
 analytical hessian:
 * wall-time:     0 d,  0 h,  0 min,  0.310 sec
 *  cpu-time:     0 d,  0 h,  0 min,  0.455 sec
 * ratio c/w:     1.467 speedup

