15
 energy: -18.997914633778 gnorm: 0.000731519235 xtb: 6.7.1 (unknown)
C           -0.65088276686061       -0.85099443979074       -0.84225590674124
C           -0.54005547341121       -0.98100792828696        0.65149976195814
C            0.85957770998232       -0.60153249091329       -0.93222049814603
C            0.97012256152498       -0.73093962599408        0.56142862877814
C           -1.15923586905066        0.25065753317315        0.04798491296589
C            1.08615529028478        0.62231686796432       -0.08598770312130
C           -0.19091148431126        1.40386176818046        0.07561075049674
H           -1.24353837804087       -1.40153142897611       -1.55034650909271
H           -1.02974449168458       -1.65246016529055        1.33420756378236
H            1.51075823416060       -0.94462953929197       -1.71552417702707
H            1.72484375258931       -1.19627410824351        1.16933900801795
H           -2.22061106049758        0.42190506491280        0.14177237180734
H            2.03902375314959        1.12754639391743       -0.11181039838176
H           -0.35486280686974        2.10148351063671       -0.74735286793600
H           -0.22574571948942        1.95064541501636        1.01926644952684
