 Entering Gaussian System
 *********************************************
 Gaussian 98:
 frequency output generated by the xtb code
 *********************************************
                         Standard orientation:
 --------------------------------------------------------------------
  Center     Atomic     Atomic              Coordinates (Angstroms)
  Number     Number      Type              X           Y           Z
 --------------------------------------------------------------------
    1          8             0        1.129228    0.176996    0.299843
    2          7             0       -0.924021   -0.113178   -0.567974
    3          6             0       -0.152160   -0.144566    0.420919
    4          1             0       -1.885386   -0.372782   -0.387023
    5          1             0        1.298278    0.413012   -0.625913
    6          1             0       -0.386917   -0.418854    1.455555
 --------------------------------------------------------------------
     1 basis functions        1 primitive gaussians
     1 alpha electrons        1 beta electrons

 Harmonic frequencies (cm**-1), IR intensities (km*mol⁻¹),
 Raman scattering activities (A**4/amu), Raman depolarization ratios,
 reduced masses (AMU), force constants (mDyne/A) and normal coordinates:
                      1                      2                      3
                        a                      a                      a 
 Frequencies --   536.7877               670.1875               800.1171
 Red. masses --    10.1459                 4.5132                 3.3104
 Frc consts  --     0.0000                 0.0000                 0.0000
 IR Inten    --    44.6278               227.3362                56.5196
 Raman Activ --     0.0000                 0.0000                 0.0000
 Depolar     --     0.0000                 0.0000                 0.0000
 Atom AN      X      Y      Z        X      Y      Z        X      Y      Z
   1   8    -0.29   0.00  -0.33     0.08  -0.33  -0.07    -0.03   0.15   0.03
   2   7     0.52   0.12   0.02     0.04  -0.17  -0.04     0.04  -0.15  -0.03
   3   6    -0.13  -0.13   0.45    -0.08   0.32   0.07     0.08  -0.36  -0.08
   4   1     0.07   0.08  -0.30     0.00  -0.01  -0.00    -0.18   0.78   0.17
   5   1    -0.38  -0.06  -0.16    -0.19   0.81   0.17    -0.04   0.16   0.03
   6   1    -0.04  -0.03   0.12    -0.01   0.04   0.01    -0.07   0.30   0.06
                      4                      5                      6
                        a                      a                      a 
 Frequencies --   981.8708              1076.5568              1133.9891
 Red. masses --     3.6223                 3.6551                 8.2769
 Frc consts  --     0.0000                 0.0000                 0.0000
 IR Inten    --     2.4621                68.1809               191.0402
 Raman Activ --     0.0000                 0.0000                 0.0000
 Depolar     --     0.0000                 0.0000                 0.0000
 Atom AN      X      Y      Z        X      Y      Z        X      Y      Z
   1   8     0.00  -0.02  -0.00    -0.26  -0.08   0.08    -0.61  -0.12  -0.10
   2   7    -0.06   0.25   0.05     0.18   0.07  -0.13     0.23   0.03   0.12
   3   6     0.09  -0.38  -0.08     0.23   0.08  -0.11     0.16   0.06  -0.10
   4   1     0.10  -0.43  -0.09     0.20  -0.11   0.73     0.08  -0.00   0.09
   5   1    -0.04   0.16   0.03    -0.38  -0.07  -0.06     0.54   0.10   0.14
   6   1    -0.16   0.71   0.15    -0.23  -0.03  -0.12     0.38   0.07   0.08
                      7                      8                      9
                        a                      a                      a 
 Frequencies --  1281.9063              1346.9997              1742.2057
 Red. masses --     5.2455                 5.8800                12.3065
 Frc consts  --     0.0000                 0.0000                 0.0000
 IR Inten    --    39.4002                81.5919               385.4329
 Raman Activ --     0.0000                 0.0000                 0.0000
 Depolar     --     0.0000                 0.0000                 0.0000
 Atom AN      X      Y      Z        X      Y      Z        X      Y      Z
   1   8    -0.15  -0.09   0.27     0.19   0.03   0.05    -0.13  -0.02  -0.03
   2   7    -0.11  -0.04   0.07    -0.03   0.08  -0.40    -0.36   0.01  -0.46
   3   6     0.34   0.14  -0.29    -0.37  -0.13   0.21     0.56   0.02   0.52
   4   1    -0.09   0.05  -0.32     0.07  -0.06   0.33    -0.10  -0.01  -0.07
   5   1    -0.54  -0.11  -0.07    -0.07  -0.01  -0.01     0.10   0.02   0.02
   6   1     0.48   0.10   0.05     0.64   0.09   0.25    -0.08  -0.04   0.09
                     10                     11                     12
                        a                      a                      a 
 Frequencies --  2885.6093              3423.8190              3446.2891
 Red. masses --     1.7519                 1.8865                 1.8465
 Frc consts  --     0.0000                 0.0000                 0.0000
 IR Inten    --   110.6061                 2.1529                24.3738
 Raman Activ --     0.0000                 0.0000                 0.0000
 Depolar     --     0.0000                 0.0000                 0.0000
 Atom AN      X      Y      Z        X      Y      Z        X      Y      Z
   1   8     0.01   0.00  -0.01     0.01   0.01  -0.03    -0.04  -0.06   0.22
   2   7     0.00   0.00  -0.01    -0.25  -0.06   0.02    -0.03  -0.01   0.00
   3   6     0.04   0.06  -0.25     0.00  -0.00   0.02    -0.01  -0.00   0.01
   4   1     0.02   0.00   0.01     0.92   0.24  -0.14     0.12   0.03  -0.02
   5   1    -0.00   0.00  -0.01    -0.02  -0.03   0.12     0.19   0.24  -0.91
   6   1    -0.22  -0.24   0.91     0.01   0.00  -0.01    -0.00   0.00  -0.01
