6
 energy: -10.629941716579 gnorm: 0.000444377764 xtb: 6.7.1 (unknown)
O            1.12922793576543        0.17699569765224        0.29984264860134
N           -0.92402135336822       -0.11317772494239       -0.56797444020869
C           -0.15215974076125       -0.14456551608896        0.42091909649466
H           -1.88538572201501       -0.37278173176651       -0.38702340850831
H            1.29827748193075        0.41301232996266       -0.62591274109502
H           -0.38691700997057       -0.41885419335799        1.45555475492318
