15
SMILES:[H]C1=C([H])C([H])=C([H])C([H])([H])C([H])=C1[H] Energy:-91.667702eV
C      -0.800256573151416     -1.245625995558065     -0.594431340609823
C      -1.554503276065136     -0.370366366541548      0.241336442490510
C       0.573017093609234     -1.367955999160657     -0.661884759142269
C       1.547774820682327     -0.646842176732372      0.089249593602012
C      -1.123176785686283      0.787983927862615      0.820537557657687
C       1.386670677919269      0.565522491788562      0.695762719788275
C       0.186251807865818      1.432334039565424      0.509322274463408
H      -1.383310996648466     -1.974405566436426     -1.156808488910554
H      -2.600847374679171     -0.642896111845182      0.388614643105852
H       0.960513232538668     -2.183192569459685     -1.272420790186849
H       2.538796468182606     -1.101195362048951      0.136624224384198
H      -1.823472724077467      1.339662895078136      1.449834024675966
H       2.231384290825348      0.979879568179867      1.248415105188243
H       0.156562279076791      1.689569567791744     -0.572604412382025
H       0.296594669371225      2.361753173990383      1.077513481434618
15
SMILES:[H]C1=C([H])[C@@]2([H])C([H])([H])[C@@]2([H])C([H])=C1[H] Energy:-91.667694eV
C      -0.744506616041688     -1.201421224401374     -0.703059098885340
C      -1.542776744329440     -0.398212039019281      0.163679464425395
C       0.632941604679435     -1.277781394011425     -0.746382139777154
C       1.568403753815075     -0.572674964550764      0.067730995281585
C      -1.160462185229085      0.738801224165555      0.815233281336669
C       1.356517206094816      0.597770272760147      0.737663526254236
C       0.134752279483730      1.438358677748318      0.570795845452156
H      -1.292970412693194     -1.913706943239168     -1.318921344495698
H      -2.582690397911117     -0.710723002416014      0.271610808399084
H       1.058590651729305     -2.043276605143524     -1.394636137963274
H       2.571208606800626     -1.000602408022496      0.113044584720875
H      -1.891559801356659      1.233375697455790      1.456893930342468
H       2.174718154208715      1.004203433179319      1.334366419550781
H       0.120995727630076      1.753467826335305     -0.496136645042859
H       0.203898856410306      2.337966519174683      1.191419118136784
15
SMILES:[H]C1([H])[C@]2([H])[C@@]3([H])[C@]2([H])[C@@]2([H])[C@]1([H])[C@]23[H] Energy:-90.271385eV
C      -0.681952256977035     -0.535763033979146     -1.220642019102911
C      -0.682123605708753     -0.535124754741489      1.221346552784446
C       0.681347139625151     -0.536156485737219     -1.221308303668624
C       0.681171207300048     -0.536687379755428      1.220682241951251
C      -1.157902804935492      0.269879021707547     -0.000347693169413
C       1.158280358829554      0.268214996052808      0.000352622841332
C       0.000973677469058      1.361668802197120     -0.000022375017174
H      -1.328215588455395     -1.037002297450481     -1.933193783294227
H      -1.328160140496874     -1.036111943343321      1.934254693053587
H       1.326660361491658     -1.038098058575579     -1.934197310991871
H       1.326715182145361     -1.038828226362287      1.933254607474219
H      -2.205000332463467      0.593238009191337     -0.000274404273590
H       2.205841147418524      0.590068457442765      0.000264636636253
H       0.001690858732536      2.001831168727372     -0.884988373712400
H       0.001177479249348      2.001872035752851      0.884913894430101
15
SMILES:[H]C1([H])[C@]2([H])[C][C@]3([H])[C@@]1([H])[C@]3([H])C2([H])[H] Energy:-89.914688eV
C      -0.302474253242984     -0.473992380378775     -2.492410094435887
C      -0.716223639303325     -0.476591964711585      1.515685205117884
C       0.237161400592579     -0.178395735041958     -1.440847070474200
C       0.553051583331848     -0.954956878104911      0.866896829362956
C      -0.943563047455073      0.826630740679080      1.268130884174798
C       0.858378635021727      0.175080347959339     -0.158596237424751
C       0.136159050812190      1.429219155018452      0.412698965079785
H      -0.740741975710818     -0.733317189159806     -3.437646232561574
H      -1.360640891967762     -1.103446938513948      2.130667459611701
H       0.465095988382673     -1.947695022447635      0.408313360158953
H       1.374087543183632     -1.027998455542235      1.599216796377818
H      -1.793542852677248      1.383949154833888      1.659690436590949
H       1.933697810135562      0.328398916291218     -0.339779298649757
H      -0.243980894679710      2.104653476640782     -0.363929141579956
H       0.838667787085714      2.025761160414355      1.017736081024944
15
SMILES:[H]C1=C([H])C([H])([H])[C@@]2([H])C1=C([H])C2([H])[H] Energy:-89.775032eV
C      -1.092773285502407     -1.080343586147018     -0.612658044456058
C      -0.623598160084483     -1.687041499369136      0.514554334626839
C      -0.384295887711045      0.172867887337395     -0.790177588727750
C       0.473059852123929     -0.895002460509192      1.194508216463158
C      -0.567922081056973      1.530582922283357     -0.721089780129987
C       0.842643721346739      0.182454294604204      0.173320634778865
C       0.530767284852146      1.734243730936302      0.295209060067243
H      -1.900011564968187     -1.432657628159462     -1.252982688685907
H      -1.007198196788406     -2.628626501296210      0.905465587425338
H       1.329790682129947     -1.526147940305526      1.471808844637221
H       0.122510967995461     -0.466328156968682      2.146336237676118
H      -1.298396087070770      2.216615913269090     -1.111999707214326
H       1.805794273991599      0.014597287165215     -0.316341401862885
H       1.362346504960609      2.370983464466233     -0.030068942381242
H       0.197956761361941      2.069618645161518      1.285568923266577
15
SMILES:[H][C-]1C([H])([H])[C@@]2([H])[C+]3[C@]1([H])[C@@]3([H])C2([H])[H] Energy:-89.775017eV
C      -1.129299992082055     -1.153315016816406     -0.356156070650876
C      -0.457292360156585     -1.738706657812414      0.675496301124464
C      -0.473337268092385      0.097942574245307     -0.683115922712853
C       0.738899947294713     -0.930106499010766      1.131056432188659
C      -0.649596775602329      1.456501583858819     -0.615900650105316
C       0.906858614195530      0.132444129606817      0.042746833824415
C       0.610407303174577      1.686512124474002      0.184000883199425
H      -2.038728252810480     -1.517897531543550     -0.830957506021603
H      -0.755323340289820     -2.675951156647719      1.143639813219096
H       1.637461074985425     -1.552431221877842      1.252380080196281
H       0.566221268693375     -0.490330952622723      2.125640352950024
H      -1.439391022760347      2.132189951159288     -0.891767237401256
H       1.765747056239985     -0.041879998967878     -0.611018192860236
H       1.367732834439031      2.316380300445284     -0.297914757389998
H       0.456412133832090      2.042913867366011      1.210126435664698
15
SMILES:[H]C1=C([H])[C@@]2([H])[C@@]3([H])[C@@]([H])(C1([H])[H])[C@@]23[H] Energy:-89.336510eV
C      -0.698136644500946     -0.675914499779056     -1.020398891102073
C      -1.170841424405098     -0.785213083643557      0.312128121848713
C       0.171897825900640     -1.413027489762281     -0.016624461333578
C       1.311650670251084     -0.663588906736136      0.449341922708023
C      -1.095682507354811      0.588030696704061     -0.301860971470156
C       1.244828272017475      0.690268440122636      0.539017315710730
C       0.026003939208364      1.484186676239345      0.173236915416351
H      -1.220131264094089     -1.109161413642018     -1.855286949705915
H      -2.076578632925316     -1.306230765971742      0.566513994968404
H       0.236400351982869     -2.509502685762551     -0.082233190694576
H       2.240251824074340     -1.159549734397927      0.736468403284860
H      -2.041606302184555      1.067174061711051     -0.597721152165270
H       2.121047795057714      1.232255312820412      0.894606404169988
H       0.297651205051796      2.236696930340990     -0.585448401443405
H      -0.279999650511627      2.097695348865177      1.036601145426848
