 Entering Gaussian System
 *********************************************
 Gaussian 98:
 frequency output generated by the xtb code
 *********************************************
                         Standard orientation:
 --------------------------------------------------------------------
  Center     Atomic     Atomic              Coordinates (Angstroms)
  Number     Number      Type              X           Y           Z
 --------------------------------------------------------------------
    1          6             0       -0.767436   -0.718714   -0.751733
    2          6             0       -0.767405   -0.718697    0.751773
    3          6             0        0.766361   -0.719826   -0.751755
    4          6             0        0.766392   -0.719771    0.751796
    5          6             0       -1.139530    0.530446    0.000015
    6          6             0        1.140279    0.528804   -0.000033
    7          6             0        0.001083    1.514038   -0.000018
    8          1             0       -1.398780   -1.235296   -1.451826
    9          1             0       -1.398712   -1.235235    1.451928
   10          1             0        1.396931   -1.237322   -1.451860
   11          1             0        1.396997   -1.237231    1.451906
   12          1             0       -2.162147    0.875060    0.000045
   13          1             0        2.163389    0.871952   -0.000078
   14          1             0        0.001519    2.147376   -0.888599
   15          1             0        0.001562    2.147416    0.888535
 --------------------------------------------------------------------
     1 basis functions        1 primitive gaussians
     1 alpha electrons        1 beta electrons

 Harmonic frequencies (cm**-1), IR intensities (km*mol⁻¹),
 Raman scattering activities (A**4/amu), Raman depolarization ratios,
 reduced masses (AMU), force constants (mDyne/A) and normal coordinates:
                      1                      2                      3
                        a                      a                      a 
 Frequencies --   374.4358               522.5271               673.9940
 Red. masses --     6.5337                 8.7727                11.3959
 Frc consts  --     0.0000                 0.0000                 0.0000
 IR Inten    --     0.6280                 0.0000                 0.1180
 Raman Activ --     0.0000                 0.0000                 0.0000
 Depolar     --     0.0000                 0.0000                 0.0000
 Atom AN      X      Y      Z        X      Y      Z        X      Y      Z
   1   6     0.02  -0.19   0.01     0.12   0.25  -0.15    -0.20  -0.36   0.05
   2   6    -0.02   0.19   0.01    -0.12  -0.25  -0.15    -0.20  -0.36  -0.05
   3   6    -0.02  -0.19   0.01     0.12  -0.25   0.15    -0.20   0.36  -0.05
   4   6     0.02   0.19   0.01    -0.12   0.25   0.15    -0.20   0.36   0.05
   5   6    -0.00  -0.00  -0.30    -0.00   0.00   0.40     0.22  -0.17  -0.00
   6   6    -0.00  -0.00  -0.30     0.00  -0.00  -0.40     0.22   0.17  -0.00
   7   6     0.00   0.00   0.41     0.00  -0.00   0.00     0.32  -0.00  -0.00
   8   1    -0.00  -0.09   0.04     0.03   0.19  -0.13    -0.04  -0.02  -0.06
   9   1     0.00   0.09   0.04    -0.03  -0.19  -0.13    -0.04  -0.02   0.06
  10   1     0.00  -0.09   0.04     0.03  -0.19   0.13    -0.04   0.02   0.06
  11   1    -0.00   0.09   0.04    -0.03   0.19   0.13    -0.04   0.02  -0.06
  12   1    -0.00  -0.00  -0.14    -0.00   0.00   0.07     0.10   0.07  -0.00
  13   1    -0.00  -0.00  -0.14     0.00  -0.00  -0.07     0.10  -0.07   0.00
  14   1     0.00   0.31   0.34    -0.17   0.00   0.00     0.04  -0.00   0.00
  15   1    -0.00  -0.31   0.34     0.17  -0.00   0.00     0.04  -0.00   0.00
                      4                      5                      6
                        a                      a                      a 
 Frequencies --   715.3289               755.1838               821.0475
 Red. masses --    10.6571                 9.9526                 3.4347
 Frc consts  --     0.0000                 0.0000                 0.0000
 IR Inten    --     0.0759                 0.0000                 0.7157
 Raman Activ --     0.0000                 0.0000                 0.0000
 Depolar     --     0.0000                 0.0000                 0.0000
 Atom AN      X      Y      Z        X      Y      Z        X      Y      Z
   1   6    -0.04   0.22  -0.05    -0.31   0.10  -0.29    -0.02   0.06  -0.13
   2   6    -0.04   0.22   0.05     0.31  -0.10  -0.29    -0.02   0.06   0.13
   3   6     0.04   0.22  -0.05    -0.31  -0.10   0.29    -0.02  -0.06   0.13
   4   6     0.04   0.22   0.05     0.31   0.10   0.29    -0.02  -0.06  -0.13
   5   6    -0.40  -0.06  -0.00     0.00  -0.00  -0.16     0.16  -0.17  -0.00
   6   6     0.40  -0.06   0.00    -0.00   0.00   0.16     0.16   0.17  -0.00
   7   6    -0.00  -0.58   0.00     0.00   0.00  -0.00    -0.18   0.00  -0.00
   8   1     0.05  -0.09   0.04    -0.09  -0.01  -0.06    -0.00   0.33  -0.27
   9   1     0.05  -0.09  -0.04     0.09   0.01  -0.06    -0.00   0.33   0.27
  10   1    -0.05  -0.09   0.04    -0.09   0.01   0.06    -0.00  -0.33   0.27
  11   1    -0.05  -0.09  -0.04     0.09  -0.01   0.06    -0.00  -0.33  -0.27
  12   1    -0.08   0.07   0.00     0.00  -0.00   0.24     0.02  -0.12  -0.00
  13   1     0.08   0.07  -0.00    -0.00  -0.00  -0.24     0.02   0.12   0.00
  14   1    -0.00  -0.16   0.00     0.11  -0.00  -0.00    -0.13   0.00   0.00
  15   1    -0.00  -0.16  -0.00    -0.11   0.00   0.00    -0.13   0.00   0.00
                      7                      8                      9
                        a                      a                      a 
 Frequencies --   845.0955               870.0828               905.8205
 Red. masses --     5.5023                 3.1540                 3.8326
 Frc consts  --     0.0000                 0.0000                 0.0000
 IR Inten    --    12.6267                 5.2818                 0.0000
 Raman Activ --     0.0000                 0.0000                 0.0000
 Depolar     --     0.0000                 0.0000                 0.0000
 Atom AN      X      Y      Z        X      Y      Z        X      Y      Z
   1   6     0.21   0.13   0.17    -0.02  -0.05   0.09    -0.10   0.14   0.13
   2   6    -0.21  -0.13   0.17    -0.02  -0.05  -0.09     0.10  -0.14   0.13
   3   6    -0.21   0.13   0.17     0.02  -0.05   0.09    -0.10  -0.14  -0.13
   4   6     0.21  -0.13   0.17     0.02  -0.05  -0.09     0.10   0.14  -0.13
   5   6     0.00  -0.00  -0.15    -0.13   0.12  -0.00     0.00  -0.00  -0.20
   6   6    -0.00  -0.00  -0.15     0.13   0.12   0.00    -0.00  -0.00   0.20
   7   6     0.00  -0.00   0.01     0.00   0.30   0.00    -0.00  -0.00  -0.00
   8   1     0.14   0.18  -0.13    -0.01  -0.35   0.27    -0.17   0.30  -0.02
   9   1    -0.14  -0.18  -0.13    -0.01  -0.35  -0.27     0.17  -0.30  -0.02
  10   1    -0.14   0.18  -0.13     0.01  -0.35   0.27    -0.17  -0.30   0.02
  11   1     0.14  -0.18  -0.13     0.01  -0.35  -0.27     0.17   0.30   0.02
  12   1    -0.00  -0.00  -0.39    -0.04   0.03  -0.00    -0.00  -0.00  -0.35
  13   1    -0.00  -0.00  -0.39     0.04   0.03  -0.00     0.00  -0.00   0.35
  14   1    -0.00  -0.04  -0.03     0.00   0.09   0.00     0.10  -0.00   0.00
  15   1     0.00   0.04  -0.03     0.00   0.09  -0.00    -0.10   0.00   0.00
                     10                     11                     12
                        a                      a                      a 
 Frequencies --   914.2975               967.9446               968.9226
 Red. masses --     6.3527                 4.6460                 3.1035
 Frc consts  --     0.0000                 0.0000                 0.0000
 IR Inten    --     0.3995                 1.7514                 0.0052
 Raman Activ --     0.0000                 0.0000                 0.0000
 Depolar     --     0.0000                 0.0000                 0.0000
 Atom AN      X      Y      Z        X      Y      Z        X      Y      Z
   1   6    -0.03   0.25   0.11     0.20   0.08  -0.08     0.15   0.04  -0.08
   2   6     0.03  -0.25   0.11     0.20   0.08   0.08    -0.15  -0.04  -0.08
   3   6     0.03   0.25   0.11    -0.20   0.08  -0.08    -0.15   0.04  -0.08
   4   6    -0.03  -0.25   0.11    -0.20   0.08   0.08     0.15  -0.04  -0.08
   5   6    -0.00   0.00  -0.16    -0.07  -0.15   0.00     0.00   0.00   0.05
   6   6    -0.00  -0.00  -0.16     0.06  -0.15   0.00    -0.00   0.00   0.05
   7   6    -0.00   0.00  -0.37     0.00   0.26   0.00    -0.00  -0.00   0.25
   8   1     0.15  -0.09   0.00     0.30  -0.11  -0.13     0.27  -0.33   0.03
   9   1    -0.15   0.09   0.00     0.29  -0.11   0.13    -0.27   0.33   0.03
  10   1    -0.15  -0.09   0.00    -0.30  -0.11  -0.13    -0.27  -0.33   0.03
  11   1     0.15   0.09   0.00    -0.29  -0.11   0.13     0.27   0.33   0.03
  12   1     0.00   0.00   0.27    -0.10  -0.29   0.00     0.00   0.00  -0.01
  13   1     0.00   0.00   0.27     0.10  -0.29  -0.00    -0.00   0.00  -0.01
  14   1     0.00   0.32   0.13     0.00   0.06  -0.00    -0.00  -0.20  -0.08
  15   1    -0.00  -0.32   0.13     0.00   0.06   0.00     0.00   0.20  -0.08
                     13                     14                     15
                        a                      a                      a 
 Frequencies --   973.6240               986.0285               990.8114
 Red. masses --     6.0829                 4.0462                 9.2717
 Frc consts  --     0.0000                 0.0000                 0.0000
 IR Inten    --     3.4798                 0.0000                 0.0077
 Raman Activ --     0.0000                 0.0000                 0.0000
 Depolar     --     0.0000                 0.0000                 0.0000
 Atom AN      X      Y      Z        X      Y      Z        X      Y      Z
   1   6     0.06  -0.13   0.12     0.01  -0.24   0.11     0.12   0.18  -0.16
   2   6     0.06  -0.13  -0.12    -0.01   0.24   0.11     0.12   0.18   0.16
   3   6     0.06   0.13  -0.12     0.01   0.24  -0.11    -0.12   0.18  -0.16
   4   6     0.06   0.13   0.12    -0.01  -0.24  -0.11    -0.12   0.18   0.16
   5   6    -0.34   0.21  -0.00    -0.00   0.00  -0.06     0.43  -0.18  -0.00
   6   6    -0.34  -0.21   0.00     0.00   0.00   0.06    -0.43  -0.18   0.00
   7   6     0.12  -0.00   0.00    -0.00   0.00  -0.00    -0.00  -0.18   0.00
   8   1     0.16   0.12  -0.21     0.06   0.24  -0.25    -0.09  -0.09   0.18
   9   1     0.16   0.12   0.21    -0.06  -0.24  -0.25    -0.09  -0.09  -0.18
  10   1     0.16  -0.12   0.21     0.06  -0.24   0.25     0.09  -0.09   0.18
  11   1     0.16  -0.12  -0.21    -0.06   0.24   0.25     0.09  -0.09  -0.18
  12   1    -0.11   0.00   0.00     0.00   0.00   0.32     0.11  -0.08  -0.00
  13   1    -0.11  -0.00  -0.00     0.00   0.00  -0.32    -0.11  -0.08  -0.00
  14   1     0.30  -0.00  -0.00     0.09  -0.00   0.00    -0.00  -0.07  -0.01
  15   1     0.30  -0.00  -0.00    -0.09   0.00   0.00    -0.00  -0.07   0.01
                     16                     17                     18
                        a                      a                      a 
 Frequencies --   993.9665              1021.7500              1049.0925
 Red. masses --     4.3701                 6.0955                 6.3853
 Frc consts  --     0.0000                 0.0000                 0.0000
 IR Inten    --     1.5962                 5.5073                 0.0000
 Raman Activ --     0.0000                 0.0000                 0.0000
 Depolar     --     0.0000                 0.0000                 0.0000
 Atom AN      X      Y      Z        X      Y      Z        X      Y      Z
   1   6     0.11  -0.25   0.01     0.10  -0.10   0.27    -0.17  -0.25  -0.13
   2   6    -0.11   0.25   0.01     0.10  -0.10  -0.27     0.17   0.26  -0.13
   3   6    -0.12  -0.25   0.01     0.10   0.10  -0.27    -0.17   0.26   0.13
   4   6     0.11   0.25   0.01     0.10   0.10   0.27     0.17  -0.25   0.13
   5   6     0.00  -0.00   0.03     0.06   0.13  -0.00    -0.00  -0.00   0.16
   6   6    -0.00  -0.00   0.03     0.06  -0.13  -0.00     0.00  -0.00  -0.16
   7   6     0.00  -0.00  -0.01    -0.20   0.00   0.00    -0.00   0.00  -0.00
   8   1     0.17   0.12  -0.26    -0.25   0.22   0.14    -0.01   0.01  -0.12
   9   1    -0.17  -0.12  -0.26    -0.25   0.22  -0.14     0.01  -0.00  -0.13
  10   1    -0.17   0.12  -0.26    -0.25  -0.22  -0.14    -0.01  -0.00   0.13
  11   1     0.17  -0.12  -0.26    -0.25  -0.22   0.14     0.01   0.01   0.12
  12   1     0.00  -0.00   0.36    -0.02  -0.09   0.00    -0.00  -0.01  -0.35
  13   1    -0.00  -0.00   0.36    -0.02   0.09   0.00     0.00  -0.01   0.35
  14   1     0.00   0.01   0.00    -0.03   0.00   0.00    -0.32   0.00   0.00
  15   1    -0.00  -0.01   0.00    -0.03   0.00  -0.00     0.32   0.00  -0.00
                     19                     20                     21
                        a                      a                      a 
 Frequencies --  1049.1320              1065.9011              1075.4549
 Red. masses --     3.8018                 8.1062                 3.0305
 Frc consts  --     0.0000                 0.0000                 0.0000
 IR Inten    --     0.1014                 3.5725                 0.2924
 Raman Activ --     0.0000                 0.0000                 0.0000
 Depolar     --     0.0000                 0.0000                 0.0000
 Atom AN      X      Y      Z        X      Y      Z        X      Y      Z
   1   6     0.10  -0.05   0.07    -0.11   0.08   0.10     0.03  -0.04   0.09
   2   6     0.10  -0.04  -0.08     0.11  -0.08   0.10     0.03  -0.04  -0.09
   3   6    -0.10  -0.04   0.07     0.11   0.08   0.10     0.03   0.04  -0.09
   4   6    -0.10  -0.05  -0.07    -0.11  -0.08   0.10     0.03   0.04   0.09
   5   6     0.20   0.16   0.00    -0.00  -0.00  -0.43     0.05   0.19  -0.00
   6   6    -0.20   0.16  -0.00    -0.00   0.00  -0.43     0.05  -0.19  -0.00
   7   6    -0.00  -0.23  -0.00     0.00  -0.00   0.39    -0.25   0.00   0.00
   8   1     0.24  -0.11  -0.09    -0.04   0.05   0.01     0.12   0.00  -0.08
   9   1     0.24  -0.11   0.09     0.04  -0.05   0.01     0.12   0.00   0.08
  10   1    -0.24  -0.11  -0.09     0.04   0.05   0.01     0.12  -0.00   0.08
  11   1    -0.24  -0.11   0.09    -0.04  -0.05   0.01     0.12  -0.00  -0.08
  12   1     0.19   0.42  -0.00     0.00  -0.00   0.25     0.16   0.49  -0.00
  13   1    -0.19   0.42   0.00    -0.00   0.00   0.25     0.16  -0.49   0.00
  14   1    -0.00  -0.06  -0.00    -0.00  -0.30  -0.12    -0.33   0.00  -0.00
  15   1     0.00  -0.06   0.00     0.00   0.30  -0.12    -0.33   0.00  -0.00
                     22                     23                     24
                        a                      a                      a 
 Frequencies --  1133.5239              1137.8958              1174.9011
 Red. masses --     3.2288                 9.6938                 5.6938
 Frc consts  --     0.0000                 0.0000                 0.0000
 IR Inten    --     0.0000                 0.0157                 0.0000
 Raman Activ --     0.0000                 0.0000                 0.0000
 Depolar     --     0.0000                 0.0000                 0.0000
 Atom AN      X      Y      Z        X      Y      Z        X      Y      Z
   1   6    -0.09   0.01   0.01    -0.27   0.01  -0.30     0.16  -0.19  -0.18
   2   6     0.10  -0.01   0.01    -0.27   0.01   0.30    -0.16   0.19  -0.18
   3   6    -0.09  -0.01  -0.01     0.27   0.00  -0.30     0.16   0.19   0.18
   4   6     0.09   0.01  -0.01     0.27   0.00   0.30    -0.16  -0.19   0.18
   5   6     0.00   0.00   0.29    -0.01  -0.17   0.00    -0.00   0.00   0.17
   6   6     0.00   0.00  -0.29     0.01  -0.17  -0.00    -0.00   0.00  -0.17
   7   6     0.00  -0.00  -0.00     0.00   0.27  -0.00     0.00  -0.00   0.00
   8   1     0.16  -0.07  -0.11     0.03  -0.10  -0.11    -0.29   0.08   0.15
   9   1    -0.16   0.07  -0.11     0.03  -0.10   0.11     0.29  -0.08   0.15
  10   1     0.16   0.07   0.11    -0.03  -0.10  -0.11    -0.29  -0.08  -0.15
  11   1    -0.16  -0.07   0.11    -0.03  -0.10   0.11     0.29   0.08  -0.15
  12   1    -0.00  -0.00  -0.21     0.08   0.21  -0.00    -0.00  -0.00   0.01
  13   1     0.00  -0.00   0.21    -0.08   0.21   0.00     0.00  -0.00  -0.01
  14   1     0.52  -0.00  -0.00     0.00   0.07  -0.00     0.25  -0.00  -0.00
  15   1    -0.52   0.00   0.00    -0.00   0.07   0.00    -0.25   0.00   0.00
                     25                     26                     27
                        a                      a                      a 
 Frequencies --  1204.6393              1218.4015              1268.4519
 Red. masses --     6.1131                 7.8634                 6.9114
 Frc consts  --     0.0000                 0.0000                 0.0000
 IR Inten    --     0.1926                 0.7672                 1.0175
 Raman Activ --     0.0000                 0.0000                 0.0000
 Depolar     --     0.0000                 0.0000                 0.0000
 Atom AN      X      Y      Z        X      Y      Z        X      Y      Z
   1   6    -0.12   0.02   0.15     0.39   0.03  -0.05    -0.03  -0.03  -0.07
   2   6    -0.12   0.02  -0.15    -0.39  -0.03  -0.05    -0.03  -0.03   0.07
   3   6    -0.12  -0.02  -0.15    -0.39   0.03  -0.05    -0.03   0.03   0.07
   4   6    -0.12  -0.02   0.15     0.39  -0.03  -0.05    -0.03   0.03  -0.07
   5   6     0.27   0.27  -0.00     0.00   0.00  -0.06     0.22   0.04  -0.00
   6   6     0.27  -0.27   0.00     0.00  -0.00  -0.06     0.22  -0.04  -0.00
   7   6    -0.13   0.00   0.00    -0.00   0.00  -0.05    -0.64   0.00   0.00
   8   1     0.18  -0.11  -0.06    -0.16   0.05   0.20     0.00  -0.05   0.00
   9   1     0.18  -0.11   0.06     0.16  -0.05   0.20     0.00  -0.05  -0.00
  10   1     0.18   0.11   0.06     0.16   0.05   0.20     0.00   0.05  -0.00
  11   1     0.18   0.11  -0.06    -0.16  -0.05   0.20     0.00   0.05   0.00
  12   1    -0.08  -0.38   0.00     0.00  -0.00   0.21     0.09   0.10  -0.00
  13   1    -0.08   0.38  -0.00     0.00   0.00   0.21     0.09  -0.10  -0.00
  14   1    -0.13   0.00   0.00     0.00   0.02   0.00     0.46  -0.00  -0.00
  15   1    -0.13   0.00  -0.00    -0.00  -0.02   0.00     0.46  -0.00  -0.00
                     28                     29                     30
                        a                      a                      a 
 Frequencies --  1278.6512              1391.1687              1412.6305
 Red. masses --     8.4199                11.0722                10.7498
 Frc consts  --     0.0000                 0.0000                 0.0000
 IR Inten    --     0.8656                 4.1923                 1.2974
 Raman Activ --     0.0000                 0.0000                 0.0000
 Depolar     --     0.0000                 0.0000                 0.0000
 Atom AN      X      Y      Z        X      Y      Z        X      Y      Z
   1   6     0.31  -0.06  -0.14     0.07  -0.14  -0.29     0.07  -0.19  -0.31
   2   6     0.31  -0.06   0.14     0.07  -0.14   0.29     0.07  -0.19   0.31
   3   6    -0.31  -0.06  -0.14    -0.07  -0.14  -0.29     0.07   0.19   0.31
   4   6    -0.31  -0.06   0.14    -0.07  -0.14   0.29     0.07   0.19  -0.31
   5   6    -0.25  -0.15   0.00    -0.01   0.47  -0.00    -0.01   0.41  -0.00
   6   6     0.25  -0.15  -0.00     0.01   0.47  -0.00    -0.01  -0.41   0.00
   7   6     0.00   0.18  -0.00    -0.00  -0.20   0.00    -0.00  -0.00  -0.00
   8   1    -0.12   0.10   0.06    -0.04  -0.05  -0.03    -0.12  -0.01   0.00
   9   1    -0.12   0.10  -0.06    -0.04  -0.05   0.03    -0.12  -0.01  -0.00
  10   1     0.12   0.10   0.06     0.04  -0.05  -0.03    -0.12   0.01  -0.00
  11   1     0.12   0.10  -0.06     0.04  -0.05   0.03    -0.12   0.01   0.00
  12   1     0.05   0.31  -0.00    -0.10  -0.14   0.00    -0.07  -0.08   0.00
  13   1    -0.05   0.31  -0.00     0.10  -0.15  -0.00    -0.07   0.08  -0.00
  14   1     0.00   0.08   0.02     0.00  -0.04   0.01    -0.12   0.00   0.00
  15   1     0.00   0.08  -0.02     0.00  -0.04  -0.01    -0.12   0.00  -0.00
                     31                     32                     33
                        a                      a                      a 
 Frequencies --  1476.3595              2972.3361              2989.0990
 Red. masses --     2.0999                 1.9966                 1.4761
 Frc consts  --     0.0000                 0.0000                 0.0000
 IR Inten    --     0.0730                47.2800                44.6438
 Raman Activ --     0.0000                 0.0000                 0.0000
 Depolar     --     0.0000                 0.0000                 0.0000
 Atom AN      X      Y      Z        X      Y      Z        X      Y      Z
   1   6     0.01  -0.01  -0.01    -0.00  -0.00  -0.00     0.00   0.00  -0.00
   2   6     0.01  -0.01   0.01     0.00   0.00  -0.00     0.00   0.00   0.00
   3   6    -0.01  -0.01  -0.01     0.00  -0.00  -0.00    -0.00   0.00  -0.00
   4   6    -0.01  -0.01   0.01    -0.00   0.00  -0.00    -0.00   0.00   0.00
   5   6    -0.03   0.01  -0.00     0.00   0.00   0.01    -0.01  -0.00   0.00
   6   6     0.03   0.01  -0.00    -0.00   0.00   0.01     0.01  -0.00   0.00
   7   6     0.00   0.31  -0.00     0.00   0.00   0.30    -0.00  -0.21   0.00
   8   1    -0.01   0.01  -0.00     0.00   0.00   0.00    -0.00  -0.00  -0.00
   9   1    -0.01   0.01   0.00    -0.00  -0.00   0.00    -0.00  -0.00   0.00
  10   1     0.01   0.01  -0.00    -0.00   0.00   0.00     0.00  -0.00  -0.00
  11   1     0.01   0.01   0.00     0.00  -0.00   0.00     0.00  -0.00   0.00
  12   1    -0.01   0.02   0.00    -0.00   0.00  -0.00     0.03  -0.01  -0.00
  13   1     0.01   0.02  -0.00     0.00   0.00  -0.00    -0.03  -0.01   0.00
  14   1    -0.00  -0.54  -0.40     0.00   0.41  -0.54     0.00   0.37  -0.58
  15   1    -0.00  -0.54   0.40    -0.00  -0.41  -0.54     0.00   0.37   0.58
                     34                     35                     36
                        a                      a                      a 
 Frequencies --  3086.5303              3088.8033              3106.0251
 Red. masses --     1.8175                 1.8257                 1.8034
 Frc consts  --     0.0000                 0.0000                 0.0000
 IR Inten    --    37.7166                17.7357                 0.0004
 Raman Activ --     0.0000                 0.0000                 0.0000
 Depolar     --     0.0000                 0.0000                 0.0000
 Atom AN      X      Y      Z        X      Y      Z        X      Y      Z
   1   6     0.02   0.02   0.02    -0.01  -0.01  -0.01     0.08   0.06   0.09
   2   6     0.02   0.02  -0.02    -0.01  -0.01   0.01    -0.08  -0.06   0.09
   3   6     0.02  -0.02  -0.02     0.01  -0.01  -0.01     0.08  -0.06  -0.09
   4   6     0.02  -0.02   0.02     0.01  -0.01   0.01    -0.08   0.06  -0.09
   5   6    -0.18   0.06   0.00     0.18  -0.06  -0.00    -0.00  -0.00   0.00
   6   6    -0.18  -0.06   0.00    -0.18  -0.06   0.00    -0.00  -0.00  -0.00
   7   6    -0.00   0.00   0.00    -0.00  -0.02   0.00     0.00  -0.00   0.00
   8   1    -0.07  -0.06  -0.08     0.04   0.03   0.05    -0.28  -0.23  -0.31
   9   1    -0.07  -0.06   0.08     0.04   0.03  -0.05     0.28   0.23  -0.31
  10   1    -0.07   0.06   0.08    -0.04   0.03   0.05    -0.28   0.23   0.31
  11   1    -0.07   0.06  -0.08    -0.04   0.03  -0.05     0.28  -0.23   0.31
  12   1     0.62  -0.21  -0.00    -0.64   0.21   0.00     0.00  -0.00  -0.00
  13   1     0.62   0.21  -0.00     0.64   0.21  -0.00     0.00   0.00   0.00
  14   1    -0.00  -0.00   0.00     0.00   0.02  -0.03     0.00   0.00  -0.00
  15   1    -0.00  -0.00  -0.00     0.00   0.02   0.03    -0.00  -0.00  -0.00
                     37                     38                     39
                        a                      a                      a 
 Frequencies --  3114.5268              3118.1633              3124.1550
 Red. masses --     1.8514                 1.8966                 1.9546
 Frc consts  --     0.0000                 0.0000                 0.0000
 IR Inten    --    81.8347                97.4136                34.7307
 Raman Activ --     0.0000                 0.0000                 0.0000
 Depolar     --     0.0000                 0.0000                 0.0000
 Atom AN      X      Y      Z        X      Y      Z        X      Y      Z
   1   6     0.08   0.07   0.09    -0.08  -0.07  -0.09     0.08   0.07   0.09
   2   6    -0.08  -0.07   0.09    -0.08  -0.07   0.09     0.08   0.07  -0.09
   3   6    -0.08   0.07   0.09    -0.08   0.07   0.09    -0.08   0.07   0.10
   4   6     0.08  -0.07   0.09    -0.08   0.07  -0.09    -0.08   0.07  -0.09
   5   6     0.00  -0.00   0.00    -0.05   0.02   0.00     0.03  -0.02  -0.00
   6   6     0.00   0.00   0.00    -0.05  -0.02   0.00    -0.03  -0.02   0.00
   7   6    -0.00   0.00   0.00     0.00   0.00   0.00    -0.00  -0.00   0.00
   8   1    -0.28  -0.23  -0.31     0.27   0.22   0.30    -0.28  -0.23  -0.31
   9   1     0.28   0.23  -0.31     0.27   0.23  -0.30    -0.28  -0.23   0.31
  10   1     0.28  -0.23  -0.31     0.27  -0.23  -0.30     0.28  -0.23  -0.31
  11   1    -0.28   0.23  -0.31     0.27  -0.22   0.30     0.28  -0.23   0.31
  12   1    -0.00   0.00   0.00     0.17  -0.06   0.00    -0.09   0.03   0.00
  13   1    -0.00  -0.00   0.00     0.17   0.06  -0.00     0.09   0.03  -0.00
  14   1     0.00   0.00  -0.00    -0.00   0.00  -0.00    -0.00   0.00  -0.00
  15   1     0.00  -0.00  -0.00    -0.00  -0.00  -0.00     0.00   0.00   0.00
