      -----------------------------------------------------------      
     |                   =====================                   |     
     |                           x T B                           |     
     |                   =====================                   |     
     |                         S. Grimme                         |     
     |          Mulliken Center for Theoretical Chemistry        |     
     |                    University of Bonn                     |     
      -----------------------------------------------------------      

   * xtb version 6.7.1 (unknown) compiled by 'runner@Mac-1732184002186.local' on 2024-11-21

   xtb is free software: you can redistribute it and/or modify it under
   the terms of the GNU Lesser General Public License as published by
   the Free Software Foundation, either version 3 of the License, or
   (at your option) any later version.
   
   xtb is distributed in the hope that it will be useful,
   but WITHOUT ANY WARRANTY; without even the implied warranty of
   MERCHANTABILITY or FITNESS FOR A PARTICULAR PURPOSE.  See the
   GNU Lesser General Public License for more details.
   
   Cite this work as:
   * C. Bannwarth, E. Caldeweyher, S. Ehlert, A. Hansen, P. Pracht,
     J. Seibert, S. Spicher, S. Grimme, WIREs Comput. Mol. Sci., 2020, 11,
     e01493. DOI: 10.1002/wcms.1493
   
   for GFN2-xTB:
   * C. Bannwarth, S. Ehlert and S. Grimme., J. Chem. Theory Comput., 2019,
     15, 1652-1671. DOI: 10.1021/acs.jctc.8b01176
   for GFN1-xTB:
   * S. Grimme, C. Bannwarth, P. Shushkov, J. Chem. Theory Comput., 2017,
     13, 1989-2009. DOI: 10.1021/acs.jctc.7b00118
   for GFN0-xTB:
   * P. Pracht, E. Caldeweyher, S. Ehlert, S. Grimme, ChemRxiv, 2019, preprint.
     DOI: 10.26434/chemrxiv.8326202.v1
   for GFN-FF:
   * S. Spicher and S. Grimme, Angew. Chem. Int. Ed., 2020, 59, 15665-15673.
     DOI: 10.1002/anie.202004239
   
   for ALPB and GBSA implicit solvation:
   * S. Ehlert, M. Stahn, S. Spicher, S. Grimme, J. Chem. Theory Comput.,
     2021, 17, 4250-4261. DOI: 10.1021/acs.jctc.1c00471
   
   for ddCOSMO and CPCM-X implicit solvation:
   * M. Stahn, S. Ehlert, S. Grimme, J. Phys. Chem. A,
     2023, XX, XXXX-XXXX. DOI: 10.1021/acs.jpca.3c04382
   
   for DFT-D4:
   * E. Caldeweyher, C. Bannwarth and S. Grimme, J. Chem. Phys., 2017,
     147, 034112. DOI: 10.1063/1.4993215
   * E. Caldeweyher, S. Ehlert, A. Hansen, H. Neugebauer, S. Spicher,
     C. Bannwarth and S. Grimme, J. Chem. Phys., 2019, 150, 154122.
     DOI: 10.1063/1.5090222
   * E. Caldeweyher, J.-M. Mewes, S. Ehlert and S. Grimme, Phys. Chem. Chem. Phys.
     2020, 22, 8499-8512. DOI: 10.1039/D0CP00502A
   
   for sTDA-xTB:
   * S. Grimme and C. Bannwarth, J. Chem. Phys., 2016, 145, 054103.
     DOI: 10.1063/1.4959605
   
   in the mass-spec context:
   * V. Asgeirsson, C. Bauer and S. Grimme, Chem. Sci., 2017, 8, 4879.
     DOI: 10.1039/c7sc00601b
   * J. Koopman and S. Grimme, ACS Omega 2019, 4, 12, 15120-15133.
     DOI: 10.1021/acsomega.9b02011
   
   for metadynamics refer to:
   * S. Grimme, J. Chem. Theory Comput., 2019, 155, 2847-2862
     DOI: 10.1021/acs.jctc.9b00143
   
   for SPH calculations refer to:
   * S. Spicher and S. Grimme, J. Chem. Theory Comput., 2021, 17, 1701-1714
     DOI: 10.1021/acs.jctc.0c01306
   
   for ONIOM refer to:
   * C. Plett, A. Katbashev, S. Ehlert, S. Grimme, M. Bursch,
     Phys. Chem. Chem. Phys., 2023, 25, 17860-17868. DOI: 10.1039/D3CP02178E
   
   for DIPRO refer to:
   * J. Kohn, N. Gildemeister, S. Grimme, D. Fazzi, A. Hansen,
     J. Chem. Phys., 2023, just accepted.
   
   for PTB refer to:
   * S. Grimme, M. Mueller, A. Hansen, J. Chem. Phys., 2023, 158, 124111.
     DOI: 10.1063/5.0137838
   
   with help from (in alphabetical order)
   P. Atkinson, C. Bannwarth, F. Bohle, G. Brandenburg, E. Caldeweyher
   M. Checinski, S. Dohm, S. Ehlert, S. Ehrlich, I. Gerasimov, C. Hölzer
   A. Katbashev, J. Kohn, J. Koopman, C. Lavigne, S. Lehtola, F. März, M. Müller,
   F. Musil, H. Neugebauer, J. Pisarek, C. Plett, P. Pracht, F. Pultar,
   J. Seibert, P. Shushkov, S. Spicher, M. Stahn, M. Steiner, T. Strunk,
   J. Stückrath, T. Rose, and J. Unsleber
   
 * started run on 2026/09/04 at 18:31:33.626     
   ID    Z sym.   atoms
    1    6 C      1-7
    2    1 H      8-15

           -------------------------------------------------
          |                Calculation Setup                |
           -------------------------------------------------

          program call               : /opt/homebrew/bin/xtb /Users/ujjawalm/hess/quadricyclane.xyz --chrg 0 --uhf 0 --gfn 2 --acc 1.0 --etemp 300.0 --parallel 1 --ohess normal --input control.txt
          coordinate file            : /Users/ujjawalm/hess/quadricyclane.xyz
          omp threads                :                     1

########################################################################
[WARNING] Please study the warnings concerning your input carefully
-1- readin_getIntValue: could not parse '25--opt tight'
########################################################################

           -------------------------------------------------
          |                 G F N 2 - x T B                 |
           -------------------------------------------------

        Reference                      10.1021/acs.jctc.8b01176
      * Hamiltonian:
        H0-scaling (s, p, d)           1.850000    2.230000    2.230000
        zeta-weighting                 0.500000
      * Dispersion:
        s8                             2.700000
        a1                             0.520000
        a2                             5.000000
        s9                             5.000000
      * Repulsion:
        kExp                           1.500000    1.000000
        rExp                           1.000000
      * Coulomb:
        alpha                          2.000000
        third order                    shell-resolved
        anisotropic                    true
        a3                             3.000000
        a5                             4.000000
        cn-shift                       1.200000
        cn-exp                         4.000000
        max-rad                        5.000000


          ...................................................
          :                      SETUP                      :
          :.................................................:
          :  # basis functions                  36          :
          :  # atomic orbitals                  36          :
          :  # shells                           22          :
          :  # electrons                        36          :
          :  max. iterations                   250          :
          :  Hamiltonian                  GFN2-xTB          :
          :  restarted?                      false          :
          :  GBSA solvation                  false          :
          :  PC potential                    false          :
          :  electronic temp.          300.0000000     K    :
          :  accuracy                    1.0000000          :
          :  -> integral cutoff          0.2500000E+02      :
          :  -> integral neglect         0.1000000E-07      :
          :  -> SCF convergence          0.1000000E-05 Eh   :
          :  -> wf. convergence          0.1000000E-03 e    :
          :  Broyden damping             0.4000000          :
          :  net charge                          0          :
          :  unpaired electrons                  0          :
          ...................................................

 iter      E             dE          RMSdq      gap      omega  full diag
   1    -19.2504605 -0.192505E+02  0.253E+00    6.77       0.0  T
   2    -19.2713055 -0.208450E-01  0.145E+00    6.64       1.0  T
   3    -19.2715403 -0.234824E-03  0.666E-01    6.73       1.0  T
   4    -19.2719755 -0.435216E-03  0.160E-01    6.65       1.0  T
   5    -19.2722679 -0.292322E-03  0.387E-02    6.68       1.0  T
   6    -19.2722696 -0.169136E-05  0.195E-02    6.67       1.3  T
   7    -19.2722700 -0.413289E-06  0.137E-03    6.67      18.9  T
   8    -19.2722700 -0.211673E-08  0.361E-04    6.67      71.6  T
   9    -19.2722700 -0.773792E-09  0.580E-05    6.67     445.3  T

   *** convergence criteria satisfied after 9 iterations ***

         #    Occupation            Energy/Eh            Energy/eV
      -------------------------------------------------------------
         1        2.0000           -0.6649468             -18.0941
       ...           ...                  ...                  ...
        12        2.0000           -0.4743846             -12.9087
        13        2.0000           -0.4492247             -12.2240
        14        2.0000           -0.4382269             -11.9248
        15        2.0000           -0.4302044             -11.7065
        16        2.0000           -0.4078952             -11.0994
        17        2.0000           -0.4055502             -11.0356
        18        2.0000           -0.3508605              -9.5474 (HOMO)
        19                         -0.1055977              -2.8735 (LUMO)
        20                         -0.0458320              -1.2472
        21                          0.0097693               0.2658
        22                          0.0482072               1.3118
        23                          0.0670193               1.8237
       ...                                ...                  ...
        36                          0.5405513              14.7091
      -------------------------------------------------------------
                  HL-Gap            0.2452628 Eh            6.6739 eV
             Fermi-level           -0.2282291 Eh           -6.2104 eV

 SCC (total)                   0 d,  0 h,  0 min,  0.005 sec
 SCC setup                      ...        0 min,  0.000 sec (  5.724%)
 Dispersion                     ...        0 min,  0.000 sec (  4.093%)
 classical contributions        ...        0 min,  0.000 sec (  2.031%)
 integral evaluation            ...        0 min,  0.001 sec (  9.713%)
 iterations                     ...        0 min,  0.003 sec ( 59.915%)
 molecular gradient             ...        0 min,  0.001 sec ( 17.991%)
 printout                       ...        0 min,  0.000 sec (  0.423%)

         :::::::::::::::::::::::::::::::::::::::::::::::::::::
         ::                     SUMMARY                     ::
         :::::::::::::::::::::::::::::::::::::::::::::::::::::
         :: total energy             -18.981055968688 Eh    ::
         :: gradient norm              0.070858991795 Eh/a0 ::
         :: HOMO-LUMO gap              6.673939848500 eV    ::
         ::.................................................::
         :: SCC energy               -19.272255578347 Eh    ::
         :: -> isotropic ES            0.002215036240 Eh    ::
         :: -> anisotropic ES          0.002093182122 Eh    ::
         :: -> anisotropic XC          0.011480090438 Eh    ::
         :: -> dispersion             -0.009906798358 Eh    ::
         :: repulsion energy           0.291199609660 Eh    ::
         :: add. restraining           0.000000000000 Eh    ::
         :: total charge              -0.000000000000 e     ::
         :::::::::::::::::::::::::::::::::::::::::::::::::::::

      ----------------------------------------------------------- 
     |                       L-ANC optimizer                     |
      ----------------------------------------------------------- 
          low memory version by Sebastian Ehlert

          ...................................................
          :                      SETUP                      :
          :.................................................:
          :   energy convergence        0.5000000E-05 Eh    :
          :   grad. convergence         0.1000000E-02 Eh/a0 :
          :   optimization log               true           :
          :   writing optlog all                1     steps :
          :   Hessian reset                    20     steps :
          :   maximium step len.        1.0000000     a0    :
          :   LBFGS images                     20           :
          ...................................................
 * calculating model hessian...
Using Lindh-Hessian (1995)
 Shifting diagonal of input Hessian by    1.0000000000000000E-002
 Lowest  eigenvalues of input Hessian
    0.000000    0.000000    0.000000    0.000000    0.000000    0.000000
    0.024424    0.032136    0.053006    0.056286    0.059571    0.059993
    0.061769    0.067227    0.079334    0.086108    0.088622    0.090496
 Highest eigenvalues
    1.347332    1.378756    1.482108    1.489754    1.689755    1.792242


........................................................................
.............................. CYCLE    1 ..............................
........................................................................

 iter      E             dE          RMSdq      gap      omega  full diag
   1    -19.2853186 -0.192853E+02  0.423E-01    6.76       0.0  T
   2    -19.2853336 -0.149389E-04  0.249E-01    6.76       1.0  T
   3    -19.2853361 -0.254704E-05  0.132E-02    6.75       2.0  T
   4    -19.2853367 -0.567158E-06  0.556E-03    6.76       4.6  T
   5    -19.2853367 -0.350467E-07  0.218E-03    6.76      11.8  T
   6    -19.2853367 -0.380904E-08  0.439E-04    6.76      58.8  T
   7    -19.2853367 -0.840156E-09  0.255E-04    6.76     101.2  T
     SCC iter.                  ...        0 min,  0.002 sec
     gradient                   ...        0 min,  0.001 sec
 * total energy  :   -18.9924708 Eh     change       -0.1141484E-01 Eh
   gradient norm :     0.0353490 Eh/a0  converged?    E=F G=F D=F
   step length   :     0.3776426 a0

........................................................................
.............................. CYCLE    2 ..............................
........................................................................

 iter      E             dE          RMSdq      gap      omega  full diag
   1    -19.2899413 -0.192899E+02  0.476E-01    6.92       0.0  T
   2    -19.2899728 -0.315353E-04  0.272E-01    6.92       1.0  T
   3    -19.2899623  0.105704E-04  0.474E-02    6.91       1.0  T
   4    -19.2899793 -0.170657E-04  0.591E-03    6.91       4.4  T
   5    -19.2899794 -0.630739E-07  0.291E-03    6.91       8.9  T
   6    -19.2899794 -0.441260E-08  0.525E-04    6.91      49.2  T
   7    -19.2899794 -0.779675E-09  0.209E-04    6.91     123.4  T
     SCC iter.                  ...        0 min,  0.002 sec
     gradient                   ...        0 min,  0.001 sec
 * total energy  :   -18.9968669 Eh     change       -0.4396087E-02 Eh
   gradient norm :     0.0257031 Eh/a0  converged?    E=F G=F D=F
   step length   :     0.4207700 a0

........................................................................
.............................. CYCLE    3 ..............................
........................................................................

 iter      E             dE          RMSdq      gap      omega  full diag
   1    -19.2932395 -0.192932E+02  0.785E-02    6.97       0.0  T
   2    -19.2932450 -0.548515E-05  0.466E-02    6.97       1.0  T
   3    -19.2932443  0.757502E-06  0.189E-02    6.97       1.4  T
   4    -19.2932464 -0.212732E-05  0.158E-03    6.97      16.3  T
   5    -19.2932464 -0.248553E-08  0.600E-04    6.97      43.0  T
   6    -19.2932464 -0.225278E-09  0.108E-04    6.97     240.1  T
     SCC iter.                  ...        0 min,  0.001 sec
     gradient                   ...        0 min,  0.001 sec
 * total energy  :   -18.9975839 Eh     change       -0.7170488E-03 Eh
   gradient norm :     0.0144332 Eh/a0  converged?    E=F G=F D=F
   step length   :     0.0692242 a0

........................................................................
.............................. CYCLE    4 ..............................
........................................................................

 iter      E             dE          RMSdq      gap      omega  full diag
   1    -19.2961948 -0.192962E+02  0.991E-02    7.04       0.0  T
   2    -19.2962067 -0.118603E-04  0.582E-02    7.04       1.0  T
   3    -19.2962065  0.191513E-06  0.269E-02    7.04       1.0  T
   4    -19.2962097 -0.328397E-05  0.167E-03    7.04      15.4  T
   5    -19.2962097 -0.285985E-08  0.691E-04    7.04      37.4  T
   6    -19.2962097 -0.316170E-09  0.140E-04    7.04     184.2  T
     SCC iter.                  ...        0 min,  0.001 sec
     gradient                   ...        0 min,  0.001 sec
 * total energy  :   -18.9979106 Eh     change       -0.3266813E-03 Eh
   gradient norm :     0.0023438 Eh/a0  converged?    E=F G=F D=F
   step length   :     0.0829314 a0

........................................................................
.............................. CYCLE    5 ..............................
........................................................................

 iter      E             dE          RMSdq      gap      omega  full diag
   1    -19.2962015 -0.192962E+02  0.988E-03    7.04       0.0  T
   2    -19.2962018 -0.223605E-06  0.526E-03    7.04       4.9  T
   3    -19.2962018 -0.356192E-07  0.309E-03    7.04       8.4  T
   4    -19.2962018 -0.238355E-07  0.105E-04    7.04     245.7  T
   5    -19.2962018 -0.511946E-11  0.176E-05    7.04    1468.2  T
     SCC iter.                  ...        0 min,  0.001 sec
     gradient                   ...        0 min,  0.001 sec
 * total energy  :   -18.9979148 Eh     change       -0.4163352E-05 Eh
   gradient norm :     0.0009129 Eh/a0  converged?    E=T G=T D=F
   step length   :     0.0073834 a0

   *** GEOMETRY OPTIMIZATION CONVERGED AFTER 5 CYCLES ***

------------------------------------------------------------------------
 total energy gain   :        -0.0168588 Eh      -10.5791 kcal/mol
 total RMSD          :         0.2327479 a0        0.1232 Å
 total power (kW/mol):        -8.8525666 (step)-2766.2566 (real)
------------------------------------------------------------------------

 L-ANCopt (total)              0 d,  0 h,  0 min,  0.016 sec
 setup                          ...        0 min,  0.000 sec (  0.274%)
 model hessian                  ...        0 min,  0.001 sec (  9.333%)
 ANC generation                 ...        0 min,  0.000 sec (  1.965%)
 coordinate transformation      ...        0 min,  0.000 sec (  0.071%)
 Rational function              ...        0 min,  0.000 sec (  0.095%)
 singlepoint calculation        ...        0 min,  0.014 sec ( 87.106%)
 optimization log               ...        0 min,  0.000 sec (  0.790%)
 hessian update                 ...        0 min,  0.000 sec (  0.043%)

================
 final structure:
================
15
 xtb: 6.7.1 (unknown)
C           -0.76742909465217       -0.71871614002043       -0.75173701357606
C           -0.76740381685078       -0.71870211087548        0.75176872505306
C            0.76636766832083       -0.71982021890340       -0.75175325161190
C            0.76639344848303       -0.71976825526791        0.75179686201796
C           -1.13953225240355        0.53044033828370        0.00001181698131
C            1.14027597165600        0.52881022451281       -0.00002811579878
C            0.00107520796687        1.51403795027421       -0.00001579067593
H           -1.39876814819551       -1.23530101495361       -1.45183299636786
H           -1.39871060659689       -1.23524521950327        1.45192095851701
H            1.39694285402398       -1.23731194692221       -1.45185677068644
H            1.39699866604165       -1.23722630834223        1.45190885816018
H           -2.16215137687503        0.87504834336612        0.00003919181517
H            2.16338414324396        0.87196279947739       -0.00006931308651
H            0.00151052952926        2.14737777944378       -0.88859503824761
H            0.00154740457660        2.14741390148823        0.88853877053585

 Bond Distances (Angstroems)
 ---------------------------
C1-C2=1.5035         C1-C3=1.5338         C1-C5=1.5047         C1-H8=1.0750         C2-C1=1.5035         C2-C4=1.5338         
C2-C5=1.5047         C2-H9=1.0750         C3-C1=1.5338         C3-C4=1.5036         C3-C6=1.5047         C3-H10=1.0750        
C4-C2=1.5338         C4-C3=1.5036         C4-C6=1.5047         C4-H11=1.0750        C5-C1=1.5047         C5-C2=1.5047         
C5-C7=1.5061         C5-H12=1.0791        C6-C3=1.5047         C6-C4=1.5047         C6-C7=1.5061         C6-H13=1.0791        
C7-C5=1.5061         C7-C6=1.5061         C7-H14=1.0912        C7-H15=1.0912        H8-C1=1.0750         H9-C2=1.0750         
H10-C3=1.0750        H11-C4=1.0750        H12-C5=1.0791        H13-C6=1.0791        H14-C7=1.0912        H15-C7=1.0912        
 C  H  Rav=1.0801 sigma=0.0066  Rmin=1.0750  Rmax=1.0912     8
 C  C  Rav=1.5106 sigma=0.0117  Rmin=1.5035  Rmax=1.5338    10

 selected bond angles (degree)
 --------------------
C3-C1-C2= 90.00                C5-C1-C2= 60.03                C5-C1-C3=104.35                H8-C1-C2=130.64                
H8-C1-C3=125.94                H8-C1-C5=125.39                C4-C2-C1= 90.00                C5-C2-C1= 60.03                
C5-C2-C4=104.35                H9-C2-C1=130.64                H9-C2-C4=125.94                H9-C2-C5=125.39                
C4-C3-C1= 90.00                C6-C3-C1=104.35                C6-C3-C4= 60.02                H10-C3-C1=125.94               
H10-C3-C4=130.64               H10-C3-C6=125.39               C3-C4-C2= 90.00                C6-C4-C2=104.35                
C6-C4-C3= 60.02                H11-C4-C2=125.94               H11-C4-C3=130.64               H11-C4-C6=125.39               
C2-C5-C1= 59.95                C7-C5-C1=110.79                C7-C5-C2=110.79                H12-C5-C1=119.97               
H12-C5-C2=119.96               H12-C5-C7=120.60               C4-C6-C3= 59.95                C7-C6-C3=110.79                
C7-C6-C4=110.79                H13-C6-C3=119.96               H13-C6-C4=119.97               H13-C6-C7=120.60               
C6-C7-C5= 98.37                H14-C7-C5=112.29               H14-C7-C6=112.29               H15-C7-C5=112.30               
H15-C7-C6=112.29               H15-C7-H14=109.04              

 selected dihedral angles (degree)
 ---------------------------------
C4-C2-C1-C3=  0.00            C4-C2-C1-C5=253.37            C4-C2-C1-H8=140.67            C5-C2-C1-C3=106.63            
C5-C2-C1-H8=247.30            H9-C2-C1-C3=219.33            H9-C2-C1-C5=112.70            H9-C2-C1-H8=  0.00            
C4-C3-C1-C2=  0.00            C4-C3-C1-C5= 58.95            C4-C3-C1-H8=216.44            C6-C3-C1-C2=301.04            
C6-C3-C1-C5=  0.00            C6-C3-C1-H8=157.49            H10-C3-C1-C2=143.55           H10-C3-C1-C5=202.51           
H10-C3-C1-H8=  0.00           C3-C4-C2-C1=  0.00            C3-C4-C2-C5=301.04            C3-C4-C2-H9=143.56            
C6-C4-C2-C1= 58.95            C6-C4-C2-C5=  0.00            C6-C4-C2-H9=202.51            H11-C4-C2-C1=216.45           
H11-C4-C2-C5=157.49           H11-C4-C2-H9=  0.00           C2-C4-C3-C1=  0.00            C2-C4-C3-C6=106.63            
C2-C4-C3-H10=219.33           C6-C4-C3-C1=253.37            C6-C4-C3-H10=112.70           H11-C4-C3-C1=140.67           
H11-C4-C3-C6=247.30           H11-C4-C3-H10=  0.00          C2-C5-C1-C3=278.49            C2-C5-C1-H8=120.83            
C7-C5-C1-C2=102.65            C7-C5-C1-C3= 21.13            C7-C5-C1-H8=223.48            H12-C5-C1-C2=250.58           
H12-C5-C1-C3=169.07           H12-C5-C1-H8= 11.41           C1-C5-C2-C4= 81.52            C1-C5-C2-H9=239.17            
C7-C5-C2-C1=257.35            C7-C5-C2-C4=338.87            C7-C5-C2-H9=136.52            H12-C5-C2-C1=109.42           
H12-C5-C2-C4=190.94           H12-C5-C2-H9=348.59           C4-C6-C3-C1= 81.51            C4-C6-C3-H10=239.17           
C7-C6-C3-C1=338.87            C7-C6-C3-C4=257.35            C7-C6-C3-H10=136.52           H13-C6-C3-C1=190.94           
H13-C6-C3-C4=109.42           H13-C6-C3-H10=348.59          C3-C6-C4-C2=278.49            C3-C6-C4-H11=120.83           
C7-C6-C4-C2= 21.14            C7-C6-C4-C3=102.65            C7-C6-C4-H11=223.48           H13-C6-C4-C2=169.07           
H13-C6-C4-C3=250.58           H13-C6-C4-H11= 11.41          C6-C7-C5-C1=327.70            C6-C7-C5-C2= 32.30            
C6-C7-C5-H12=180.00           H14-C7-C5-C1= 86.04           H14-C7-C5-C2=150.65           H14-C7-C5-H12=298.34          
H15-C7-C5-C1=209.35           H15-C7-C5-C2=273.96           H15-C7-C5-H12= 61.65          C5-C7-C6-C3= 32.30            
C5-C7-C6-C4=327.69            C5-C7-C6-H13=180.00           H14-C7-C6-C3=273.96           H14-C7-C6-C4=209.35           
H14-C7-C6-H13= 61.65          H15-C7-C6-C3=150.65           H15-C7-C6-C4= 86.04           H15-C7-C6-H13=298.34          
           -------------------------------------------------
          |                Final Singlepoint                |
           -------------------------------------------------

          ...................................................
          :                      SETUP                      :
          :.................................................:
          :  # basis functions                  36          :
          :  # atomic orbitals                  36          :
          :  # shells                           22          :
          :  # electrons                        36          :
          :  max. iterations                   250          :
          :  Hamiltonian                  GFN2-xTB          :
          :  restarted?                      false          :
          :  GBSA solvation                  false          :
          :  PC potential                    false          :
          :  electronic temp.          300.0000000     K    :
          :  accuracy                    1.0000000          :
          :  -> integral cutoff          0.2500000E+02      :
          :  -> integral neglect         0.1000000E-07      :
          :  -> SCF convergence          0.1000000E-05 Eh   :
          :  -> wf. convergence          0.1000000E-03 e    :
          :  Broyden damping             0.4000000          :
          :  net charge                          0          :
          :  unpaired electrons                  0          :
          ...................................................

 iter      E             dE          RMSdq      gap      omega  full diag
   1    -19.2962018 -0.192962E+02  0.804E-06    7.04       0.0  T
   2    -19.2962018 -0.994760E-13  0.438E-06    7.04    5896.6  T
   3    -19.2962018 -0.355271E-14  0.176E-06    7.04   14632.0  T

   *** convergence criteria satisfied after 3 iterations ***

         #    Occupation            Energy/Eh            Energy/eV
      -------------------------------------------------------------
         1        2.0000           -0.6676592             -18.1679
       ...           ...                  ...                  ...
        12        2.0000           -0.4699467             -12.7879
        13        2.0000           -0.4469441             -12.1620
        14        2.0000           -0.4346534             -11.8275
        15        2.0000           -0.4324362             -11.7672
        16        2.0000           -0.4080480             -11.1036
        17        2.0000           -0.4012133             -10.9176
        18        2.0000           -0.3644293              -9.9166 (HOMO)
        19                         -0.1056545              -2.8750 (LUMO)
        20                         -0.0106718              -0.2904
        21                          0.0152931               0.4161
        22                          0.0928675               2.5271
        23                          0.1037728               2.8238
       ...                                ...                  ...
        36                          0.5750219              15.6471
      -------------------------------------------------------------
                  HL-Gap            0.2587748 Eh            7.0416 eV
             Fermi-level           -0.2350419 Eh           -6.3958 eV

 SCC (total)                   0 d,  0 h,  0 min,  0.002 sec
 SCC setup                      ...        0 min,  0.000 sec (  0.867%)
 Dispersion                     ...        0 min,  0.000 sec (  0.834%)
 classical contributions        ...        0 min,  0.000 sec (  0.362%)
 integral evaluation            ...        0 min,  0.000 sec ( 15.780%)
 iterations                     ...        0 min,  0.001 sec ( 37.002%)
 molecular gradient             ...        0 min,  0.001 sec ( 44.190%)
 printout                       ...        0 min,  0.000 sec (  0.867%)

         :::::::::::::::::::::::::::::::::::::::::::::::::::::
         ::                     SUMMARY                     ::
         :::::::::::::::::::::::::::::::::::::::::::::::::::::
         :: total energy             -18.997914791390 Eh    ::
         :: gradient norm              0.000912961968 Eh/a0 ::
         :: HOMO-LUMO gap              7.041619504714 eV    ::
         ::.................................................::
         :: SCC energy               -19.296187151595 Eh    ::
         :: -> isotropic ES            0.001884180716 Eh    ::
         :: -> anisotropic ES          0.001993006004 Eh    ::
         :: -> anisotropic XC          0.010585219435 Eh    ::
         :: -> dispersion             -0.009954839270 Eh    ::
         :: repulsion energy           0.298272360205 Eh    ::
         :: add. restraining           0.000000000000 Eh    ::
         :: total charge              -0.000000000000 e     ::
         :::::::::::::::::::::::::::::::::::::::::::::::::::::

           ------------------------------------------------- 
          |                Numerical Hessian                |
           ------------------------------------------------- 
step length          :   0.00500
SCC accuracy         :   0.30000
Hessian scale factor :   1.00000
frozen atoms in %    :   0.00000    0
RMS gradient         :   0.00091
estimated CPU  time      0.01 min
estimated wall time      0.00 min

writing file <hessian>.

 projected vibrational frequencies (cm⁻¹)
eigval :       -0.00    -0.00     0.00     0.00     0.00     0.00
eigval :      374.44   522.53   673.99   715.33   755.18   821.05
eigval :      845.10   870.08   905.82   914.30   967.94   968.92
eigval :      973.62   986.03   990.81   993.97  1021.75  1049.09
eigval :     1049.13  1065.90  1075.45  1133.52  1137.90  1174.90
eigval :     1204.64  1218.40  1268.45  1278.65  1391.17  1412.63
eigval :     1476.36  2972.34  2989.10  3086.53  3088.80  3106.03
eigval :     3114.53  3118.16  3124.16
           -------------------------------------------------
          |                Property Printout                |
           -------------------------------------------------

    * Orbital Energies and Occupations

         #    Occupation            Energy/Eh            Energy/eV
      -------------------------------------------------------------
         1        2.0000           -0.6676592             -18.1679
       ...           ...                  ...                  ...
         6        2.0000           -0.5539934             -15.0749
         7        2.0000           -0.5367964             -14.6070
         8        2.0000           -0.5360046             -14.5854
         9        2.0000           -0.4996656             -13.5966
        10        2.0000           -0.4915280             -13.3752
        11        2.0000           -0.4857412             -13.2177
        12        2.0000           -0.4699467             -12.7879
        13        2.0000           -0.4469441             -12.1620
        14        2.0000           -0.4346534             -11.8275
        15        2.0000           -0.4324362             -11.7672
        16        2.0000           -0.4080480             -11.1036
        17        2.0000           -0.4012133             -10.9176
        18        2.0000           -0.3644293              -9.9166 (HOMO)
        19                         -0.1056545              -2.8750 (LUMO)
        20                         -0.0106718              -0.2904
        21                          0.0152931               0.4161
        22                          0.0928675               2.5271
        23                          0.1037728               2.8238
        24                          0.1108798               3.0172
        25                          0.1126834               3.0663
        26                          0.1430542               3.8927
        27                          0.1481687               4.0319
        28                          0.1606104               4.3704
        29                          0.2091061               5.6901
       ...                                ...                  ...
        36                          0.5750219              15.6471
      -------------------------------------------------------------
                  HL-Gap            0.2587748 Eh            7.0416 eV
             Fermi-level           -0.2350419 Eh           -6.3958 eV

     #   Z          covCN         q      C6AA      α(0)
     1   6 C        4.088    -0.034    21.102     6.525
     2   6 C        4.088    -0.034    21.102     6.525
     3   6 C        4.088    -0.034    21.102     6.525
     4   6 C        4.088    -0.034    21.102     6.525
     5   6 C        3.956    -0.023    20.910     6.497
     6   6 C        3.956    -0.023    20.910     6.497
     7   6 C        3.824    -0.057    21.583     6.611
     8   1 H        0.926     0.026     2.642     2.542
     9   1 H        0.926     0.026     2.642     2.542
    10   1 H        0.926     0.026     2.642     2.542
    11   1 H        0.926     0.026     2.642     2.542
    12   1 H        0.926     0.030     2.588     2.516
    13   1 H        0.926     0.030     2.588     2.516
    14   1 H        0.924     0.038     2.475     2.460
    15   1 H        0.924     0.038     2.475     2.460

 Mol. C6AA /au·bohr⁶  :       2022.458290
 Mol. C8AA /au·bohr⁸  :      47299.847069
 Mol. α(0) /au        :         65.823788


Wiberg/Mayer (AO) data.
largest (>0.10) Wiberg bond orders for each atom

 ---------------------------------------------------------------------------
     #   Z sym  total        # sym  WBO       # sym  WBO       # sym  WBO
 ---------------------------------------------------------------------------
     1   6 C    3.933 --     3 C    0.983     8 H    0.974     2 C    0.962
                             5 C    0.959
     2   6 C    3.933 --     4 C    0.983     9 H    0.974     1 C    0.962
                             5 C    0.959
     3   6 C    3.933 --     1 C    0.983    10 H    0.974     4 C    0.962
                             6 C    0.959
     4   6 C    3.933 --     2 C    0.983    11 H    0.974     3 C    0.962
                             6 C    0.959
     5   6 C    3.949 --     7 C    1.007    12 H    0.972     2 C    0.959
                             1 C    0.959
     6   6 C    3.949 --     7 C    1.007    13 H    0.972     3 C    0.959
                             4 C    0.959
     7   6 C    3.998 --     5 C    1.007     6 C    1.007    14 H    0.969
                            15 H    0.969
     8   1 H    0.999 --     1 C    0.974
     9   1 H    0.999 --     2 C    0.974
    10   1 H    0.999 --     3 C    0.974
    11   1 H    0.999 --     4 C    0.974
    12   1 H    0.999 --     5 C    0.972
    13   1 H    0.999 --     6 C    0.972
    14   1 H    0.999 --     7 C    0.969
    15   1 H    0.999 --     7 C    0.969
 ---------------------------------------------------------------------------

Topologies differ in total number of bonds
Writing topology from bond orders to xtbtopo.mol

molecular dipole:
                 x           y           z       tot (Debye)
 q only:        0.000       0.141      -0.000
   full:        0.000       0.066      -0.000       0.169
molecular quadrupole (traceless):
                xx          xy          yy          xz          yz          zz
 q only:        0.256       0.000       0.243      -0.000       0.000      -0.499
  q+dip:        1.605      -0.002      -0.641      -0.000       0.000      -0.965
   full:        1.553      -0.001      -0.437      -0.000       0.000      -1.116

           -------------------------------------------------
          |                Geometry Summary                 |
           -------------------------------------------------

      molecular mass/u    :       92.1386773
   center of mass at/Å    :       -0.0000249      -0.0275938       0.0000063
  moments of inertia/u·Å² :        0.1132919E+03   0.1140181E+03   0.1528263E+03
rotational constants/cm⁻¹ :        0.1487982E+00   0.1478505E+00   0.1103058E+00

 * 18 selected distances

     #   Z          #   Z                                           value/Å
     1   6 C        2   6 C                                       1.5035059
     1   6 C        3   6 C                                       1.5337973
     2   6 C        4   6 C                                       1.5337978 (max)
     3   6 C        4   6 C                                       1.5035503
     1   6 C        5   6 C                                       1.5046526
     2   6 C        5   6 C                                       1.5046512
     3   6 C        6   6 C                                       1.5046516
     4   6 C        6   6 C                                       1.5046520
     5   6 C        7   6 C                                       1.5061375
     6   6 C        7   6 C                                       1.5061383
     1   6 C        8   1 H                                       1.0749807
     2   6 C        9   1 H                                       1.0749783
     3   6 C       10   1 H                                       1.0749734 (min)
     4   6 C       11   1 H                                       1.0749804
     5   6 C       12   1 H                                       1.0791222
     6   6 C       13   1 H                                       1.0791220
     7   6 C       14   1 H                                       1.0911887
     7   6 C       15   1 H                                       1.0911896

 * 2 distinct bonds (by element types)

   Z      Z             #   av. dist./Å        max./Å        min./Å
   1 H    6 C           8     1.0800669     1.0911896     1.0749734
   6 C    6 C          10     1.5105534     1.5337978     1.5035059

           -------------------------------------------------
          |               Frequency Printout                |
           -------------------------------------------------
 projected vibrational frequencies (cm⁻¹)
eigval :       -0.00    -0.00     0.00     0.00     0.00     0.00
eigval :      374.44   522.53   673.99   715.33   755.18   821.05
eigval :      845.10   870.08   905.82   914.30   967.94   968.92
eigval :      973.62   986.03   990.81   993.97  1021.75  1049.09
eigval :     1049.13  1065.90  1075.45  1133.52  1137.90  1174.90
eigval :     1204.64  1218.40  1268.45  1278.65  1391.17  1412.63
eigval :     1476.36  2972.34  2989.10  3086.53  3088.80  3106.03
eigval :     3114.53  3118.16  3124.16
 reduced masses (amu)
   1:  9.76   2: 10.52   3: 10.59   4: 10.06   5: 10.91   6:  9.59   7:  6.53   8:  8.77
   9: 11.40  10: 10.66  11:  9.95  12:  3.43  13:  5.50  14:  3.15  15:  3.83  16:  6.35
  17:  4.65  18:  3.10  19:  6.08  20:  4.05  21:  9.27  22:  4.37  23:  6.10  24:  6.39
  25:  3.80  26:  8.11  27:  3.03  28:  3.23  29:  9.69  30:  5.69  31:  6.11  32:  7.86
  33:  6.91  34:  8.42  35: 11.07  36: 10.75  37:  2.10  38:  2.00  39:  1.48  40:  1.82
  41:  1.83  42:  1.80  43:  1.85  44:  1.90  45:  1.95
 IR intensities (km·mol⁻¹)
   1:  0.00   2:  0.01   3:  0.00   4:  0.01   5:  0.00   6:  0.00   7:  0.63   8:  0.00
   9:  0.12  10:  0.08  11:  0.00  12:  0.72  13: 12.63  14:  5.28  15:  0.00  16:  0.40
  17:  1.75  18:  0.01  19:  3.48  20:  0.00  21:  0.01  22:  1.60  23:  5.51  24:  0.00
  25:  0.10  26:  3.57  27:  0.29  28:  0.00  29:  0.02  30:  0.00  31:  0.19  32:  0.77
  33:  1.02  34:  0.87  35:  4.19  36:  1.30  37:  0.07  38: 47.28  39: 44.64  40: 37.72
  41: 17.74  42:  0.00  43: 81.83  44: 97.41  45: 34.73
 Raman intensities (Ä⁴*amu⁻¹)
   1:  0.00   2:  0.00   3:  0.00   4:  0.00   5:  0.00   6:  0.00   7:  0.00   8:  0.00
   9:  0.00  10:  0.00  11:  0.00  12:  0.00  13:  0.00  14:  0.00  15:  0.00  16:  0.00
  17:  0.00  18:  0.00  19:  0.00  20:  0.00  21:  0.00  22:  0.00  23:  0.00  24:  0.00
Molecule has the following symmetry elements: (C2) 2*(sigma) 
It seems to be the C2v point group
  25:  0.00  26:  0.00  27:  0.00  28:  0.00  29:  0.00  30:  0.00  31:  0.00  32:  0.00
  33:  0.00  34:  0.00  35:  0.00  36:  0.00  37:  0.00  38:  0.00  39:  0.00  40:  0.00
  41:  0.00  42:  0.00  43:  0.00  44:  0.00  45:  0.00
 output can be read by thermo (or use thermo option).
 writing <g98.out> molden fake output.
 recommended (thermochemical) frequency scaling factor: 1.0
           -------------------------------------------------
          |             Thermodynamic Functions             |
           -------------------------------------------------

c2v symmetry found (for desy threshold:  0.10E+00) used in thermo

          ...................................................
          :                      SETUP                      :
          :.................................................:
          :  # frequencies                          39      :
          :  # imaginary freq.                       0      :
          :  linear?                             false      :
          :  only rotor calc.                    false      :
          :  symmetry                              c2v      :
          :  rotational number                       2      :
          :  scaling factor                  1.0000000      :
          :  rotor cutoff                   50.0000000 cm⁻¹ :
          :  imag. cutoff                  -20.0000000 cm⁻¹ :
          :.................................................:

    mode    ω/cm⁻¹     T·S(HO)/kcal·mol⁻¹    T·S(FR)/kcal·mol⁻¹   T·S(vib)
   ------------------------------------------------------------------------
   ------------------------------------------------------------------------

   temp. (K)  partition function   enthalpy   heat capacity  entropy
                                   cal/mol     cal/K/mol   cal/K/mol   J/K/mol
 298.15  VIB   1.73                 1065.150     13.594      4.660
         ROT  0.537E+05              888.752      2.981     24.623
         INT  0.928E+05             1953.902     16.575     29.283
         TR   0.856E+27             1481.254      4.968     39.456
         TOT                        3435.1562    21.5432    68.7395   287.6060

       T/K    H(0)-H(T)+PV         H(T)/Eh          T*S/Eh         G(T)/Eh
   ------------------------------------------------------------------------
    298.15    0.547427E-02    0.132680E+00    0.326603E-01    0.100019E+00
   ------------------------------------------------------------------------

         :::::::::::::::::::::::::::::::::::::::::::::::::::::
         ::                  THERMODYNAMIC                  ::
         :::::::::::::::::::::::::::::::::::::::::::::::::::::
         :: total free energy         -18.897895496696 Eh   ::
         ::.................................................::
         :: total energy              -18.997914791390 Eh   ::
         :: zero point energy           0.127205371618 Eh   ::
         :: G(RRHO) w/o ZPVE           -0.027186076924 Eh   ::
         :: G(RRHO) contrib.            0.100019294694 Eh   ::
         :::::::::::::::::::::::::::::::::::::::::::::::::::::

optimized geometry written to: xtbopt.xyz


           -------------------------------------------------
          | TOTAL ENERGY              -18.997914791390 Eh   |
          | TOTAL ENTHALPY            -18.865235149854 Eh   |
          | TOTAL FREE ENERGY         -18.897895496696 Eh   |
          | GRADIENT NORM               0.000912963879 Eh/α |
          | HOMO-LUMO GAP               7.041619485031 eV   |
           -------------------------------------------------

------------------------------------------------------------------------
 * finished run on 2026/09/04 at 18:31:33.996     
------------------------------------------------------------------------
 total:
 * wall-time:     0 d,  0 h,  0 min,  0.369 sec
 *  cpu-time:     0 d,  0 h,  0 min,  0.455 sec
 * ratio c/w:     1.231 speedup
 SCF:
 * wall-time:     0 d,  0 h,  0 min,  0.005 sec
 *  cpu-time:     0 d,  0 h,  0 min,  0.007 sec
 * ratio c/w:     1.243 speedup
 ANC optimizer:
 * wall-time:     0 d,  0 h,  0 min,  0.019 sec
Note: The following floating-point exceptions are signalling: IEEE_UNDERFLOW_FLAG
normal termination of xtb
 *  cpu-time:     0 d,  0 h,  0 min,  0.027 sec
 * ratio c/w:     1.476 speedup
 analytical hessian:
 * wall-time:     0 d,  0 h,  0 min,  0.336 sec
 *  cpu-time:     0 d,  0 h,  0 min,  0.416 sec
 * ratio c/w:     1.236 speedup

