15
 energy: -18.997914791390 gnorm: 0.000912961968 xtb: 6.7.1 (unknown)
C           -0.76743548188557       -0.71871343377500       -0.75173308034113
C           -0.76740495577190       -0.71869678067734        0.75177265816381
C            0.76636127521944       -0.71982554362736       -0.75175467041071
C            0.76639230404744       -0.71977095596435        0.75179544302701
C           -1.13952947496385        0.53044630487316        0.00001486890621
C            1.14027874037592        0.52880425398466       -0.00003301906075
C            0.00108313538668        1.51403794459382       -0.00001843692384
H           -1.39877968404774       -1.23529622490196       -1.45182595772787
H           -1.39871200611701       -1.23523536179926        1.45192799683664
H            1.39693130750420       -1.23732179522060       -1.45185948740911
H            1.39699725605100       -1.23723108895883        1.45190614107112
H           -2.16214679495834        0.87505966441933        0.00004521189979
H            2.16338870854041        0.87195147189025       -0.00007838658395
H            0.00151867136996        2.14737622062728       -0.88859879139484
H            0.00156174998991        2.14741544412980        0.88853501718333
