      -----------------------------------------------------------      
     |                   =====================                   |     
     |                           x T B                           |     
     |                   =====================                   |     
     |                         S. Grimme                         |     
     |          Mulliken Center for Theoretical Chemistry        |     
     |                    University of Bonn                     |     
      -----------------------------------------------------------      

   * xtb version 6.7.1 (unknown) compiled by 'runner@Mac-1732184002186.local' on 2024-11-21

   xtb is free software: you can redistribute it and/or modify it under
   the terms of the GNU Lesser General Public License as published by
   the Free Software Foundation, either version 3 of the License, or
   (at your option) any later version.
   
   xtb is distributed in the hope that it will be useful,
   but WITHOUT ANY WARRANTY; without even the implied warranty of
   MERCHANTABILITY or FITNESS FOR A PARTICULAR PURPOSE.  See the
   GNU Lesser General Public License for more details.
   
   Cite this work as:
   * C. Bannwarth, E. Caldeweyher, S. Ehlert, A. Hansen, P. Pracht,
     J. Seibert, S. Spicher, S. Grimme, WIREs Comput. Mol. Sci., 2020, 11,
     e01493. DOI: 10.1002/wcms.1493
   
   for GFN2-xTB:
   * C. Bannwarth, S. Ehlert and S. Grimme., J. Chem. Theory Comput., 2019,
     15, 1652-1671. DOI: 10.1021/acs.jctc.8b01176
   for GFN1-xTB:
   * S. Grimme, C. Bannwarth, P. Shushkov, J. Chem. Theory Comput., 2017,
     13, 1989-2009. DOI: 10.1021/acs.jctc.7b00118
   for GFN0-xTB:
   * P. Pracht, E. Caldeweyher, S. Ehlert, S. Grimme, ChemRxiv, 2019, preprint.
     DOI: 10.26434/chemrxiv.8326202.v1
   for GFN-FF:
   * S. Spicher and S. Grimme, Angew. Chem. Int. Ed., 2020, 59, 15665-15673.
     DOI: 10.1002/anie.202004239
   
   for ALPB and GBSA implicit solvation:
   * S. Ehlert, M. Stahn, S. Spicher, S. Grimme, J. Chem. Theory Comput.,
     2021, 17, 4250-4261. DOI: 10.1021/acs.jctc.1c00471
   
   for ddCOSMO and CPCM-X implicit solvation:
   * M. Stahn, S. Ehlert, S. Grimme, J. Phys. Chem. A,
     2023, XX, XXXX-XXXX. DOI: 10.1021/acs.jpca.3c04382
   
   for DFT-D4:
   * E. Caldeweyher, C. Bannwarth and S. Grimme, J. Chem. Phys., 2017,
     147, 034112. DOI: 10.1063/1.4993215
   * E. Caldeweyher, S. Ehlert, A. Hansen, H. Neugebauer, S. Spicher,
     C. Bannwarth and S. Grimme, J. Chem. Phys., 2019, 150, 154122.
     DOI: 10.1063/1.5090222
   * E. Caldeweyher, J.-M. Mewes, S. Ehlert and S. Grimme, Phys. Chem. Chem. Phys.
     2020, 22, 8499-8512. DOI: 10.1039/D0CP00502A
   
   for sTDA-xTB:
   * S. Grimme and C. Bannwarth, J. Chem. Phys., 2016, 145, 054103.
     DOI: 10.1063/1.4959605
   
   in the mass-spec context:
   * V. Asgeirsson, C. Bauer and S. Grimme, Chem. Sci., 2017, 8, 4879.
     DOI: 10.1039/c7sc00601b
   * J. Koopman and S. Grimme, ACS Omega 2019, 4, 12, 15120-15133.
     DOI: 10.1021/acsomega.9b02011
   
   for metadynamics refer to:
   * S. Grimme, J. Chem. Theory Comput., 2019, 155, 2847-2862
     DOI: 10.1021/acs.jctc.9b00143
   
   for SPH calculations refer to:
   * S. Spicher and S. Grimme, J. Chem. Theory Comput., 2021, 17, 1701-1714
     DOI: 10.1021/acs.jctc.0c01306
   
   for ONIOM refer to:
   * C. Plett, A. Katbashev, S. Ehlert, S. Grimme, M. Bursch,
     Phys. Chem. Chem. Phys., 2023, 25, 17860-17868. DOI: 10.1039/D3CP02178E
   
   for DIPRO refer to:
   * J. Kohn, N. Gildemeister, S. Grimme, D. Fazzi, A. Hansen,
     J. Chem. Phys., 2023, just accepted.
   
   for PTB refer to:
   * S. Grimme, M. Mueller, A. Hansen, J. Chem. Phys., 2023, 158, 124111.
     DOI: 10.1063/5.0137838
   
   with help from (in alphabetical order)
   P. Atkinson, C. Bannwarth, F. Bohle, G. Brandenburg, E. Caldeweyher
   M. Checinski, S. Dohm, S. Ehlert, S. Ehrlich, I. Gerasimov, C. Hölzer
   A. Katbashev, J. Kohn, J. Koopman, C. Lavigne, S. Lehtola, F. März, M. Müller,
   F. Musil, H. Neugebauer, J. Pisarek, C. Plett, P. Pracht, F. Pultar,
   J. Seibert, P. Shushkov, S. Spicher, M. Stahn, M. Steiner, T. Strunk,
   J. Stückrath, T. Rose, and J. Unsleber
   
 * started run on 2026/09/04 at 18:31:35.176     
   ID    Z sym.   atoms
    1    6 C      1-7
    2    1 H      8-15

           -------------------------------------------------
          |                Calculation Setup                |
           -------------------------------------------------

          program call               : /opt/homebrew/bin/xtb /Users/ujjawalm/hess/benchmarks/run_20260904_183131/quadricyclane/rep_2/rep_2_input.xyz --chrg 0 --uhf 0 --gfn 2 --acc 1.0 --etemp 300.0 --parallel 1 --md --input control.txt
          coordinate file            : /Users/ujjawalm/hess/benchmarks/run_20260904_183131/quadricyclane/rep_2/rep_2_input.xyz
          omp threads                :                     1


           -------------------------------------------------
          |                 G F N 2 - x T B                 |
           -------------------------------------------------

        Reference                      10.1021/acs.jctc.8b01176
      * Hamiltonian:
        H0-scaling (s, p, d)           1.850000    2.230000    2.230000
        zeta-weighting                 0.500000
      * Dispersion:
        s8                             2.700000
        a1                             0.520000
        a2                             5.000000
        s9                             5.000000
      * Repulsion:
        kExp                           1.500000    1.000000
        rExp                           1.000000
      * Coulomb:
        alpha                          2.000000
        third order                    shell-resolved
        anisotropic                    true
        a3                             3.000000
        a5                             4.000000
        cn-shift                       1.200000
        cn-exp                         4.000000
        max-rad                        5.000000


          ...................................................
          :                      SETUP                      :
          :.................................................:
          :  # basis functions                  36          :
          :  # atomic orbitals                  36          :
          :  # shells                           22          :
          :  # electrons                        36          :
          :  max. iterations                   250          :
          :  Hamiltonian                  GFN2-xTB          :
          :  restarted?                      false          :
          :  GBSA solvation                  false          :
          :  PC potential                    false          :
          :  electronic temp.          300.0000000     K    :
          :  accuracy                    1.0000000          :
          :  -> integral cutoff          0.2500000E+02      :
          :  -> integral neglect         0.1000000E-07      :
          :  -> SCF convergence          0.1000000E-05 Eh   :
          :  -> wf. convergence          0.1000000E-03 e    :
          :  Broyden damping             0.4000000          :
          :  net charge                          0          :
          :  unpaired electrons                  0          :
          ...................................................

 iter      E             dE          RMSdq      gap      omega  full diag
   1    -19.2733134 -0.192733E+02  0.216E+00    7.12       0.0  T
   2    -19.2954754 -0.221620E-01  0.126E+00    7.03       1.0  T
   3    -19.2958822 -0.406759E-03  0.619E-01    7.07       1.0  T
   4    -19.2959628 -0.806886E-04  0.154E-01    7.02       1.0  T
   5    -19.2962010 -0.238135E-03  0.361E-02    7.04       1.0  T
   6    -19.2962016 -0.599137E-06  0.145E-02    7.04       1.8  T
   7    -19.2962018 -0.233440E-06  0.880E-04    7.04      29.3  T
   8    -19.2962018 -0.918803E-09  0.242E-04    7.04     106.6  T

   *** convergence criteria satisfied after 8 iterations ***

         #    Occupation            Energy/Eh            Energy/eV
      -------------------------------------------------------------
         1        2.0000           -0.6676586             -18.1679
       ...           ...                  ...                  ...
        12        2.0000           -0.4699459             -12.7879
        13        2.0000           -0.4469421             -12.1619
        14        2.0000           -0.4346533             -11.8275
        15        2.0000           -0.4324359             -11.7672
        16        2.0000           -0.4080477             -11.1035
        17        2.0000           -0.4012124             -10.9175
        18        2.0000           -0.3644293              -9.9166 (HOMO)
        19                         -0.1056541              -2.8750 (LUMO)
        20                         -0.0106714              -0.2904
        21                          0.0152934               0.4162
        22                          0.0928689               2.5271
        23                          0.1037730               2.8238
       ...                                ...                  ...
        36                          0.5750219              15.6471
      -------------------------------------------------------------
                  HL-Gap            0.2587752 Eh            7.0416 eV
             Fermi-level           -0.2350417 Eh           -6.3958 eV

 SCC (total)                   0 d,  0 h,  0 min,  0.005 sec
 SCC setup                      ...        0 min,  0.000 sec (  0.549%)
 Dispersion                     ...        0 min,  0.000 sec (  0.568%)
 classical contributions        ...        0 min,  0.000 sec (  0.204%)
 integral evaluation            ...        0 min,  0.000 sec (  7.641%)
 iterations                     ...        0 min,  0.003 sec ( 51.061%)
 molecular gradient             ...        0 min,  0.002 sec ( 38.509%)
 printout                       ...        0 min,  0.000 sec (  1.360%)

         :::::::::::::::::::::::::::::::::::::::::::::::::::::
         ::                     SUMMARY                     ::
         :::::::::::::::::::::::::::::::::::::::::::::::::::::
         :: total energy             -18.997914791198 Eh    ::
         :: gradient norm              0.000912357420 Eh/a0 ::
         :: HOMO-LUMO gap              7.041631276632 eV    ::
         ::.................................................::
         :: SCC energy               -19.296187152008 Eh    ::
         :: -> isotropic ES            0.001884065433 Eh    ::
         :: -> anisotropic ES          0.001993073817 Eh    ::
         :: -> anisotropic XC          0.010585229392 Eh    ::
         :: -> dispersion             -0.009954855587 Eh    ::
         :: repulsion energy           0.298272360810 Eh    ::
         :: add. restraining           0.000000000000 Eh    ::
         :: total charge               0.000000000000 e     ::
         :::::::::::::::::::::::::::::::::::::::::::::::::::::

           -------------------------------------------------
          |                Property Printout                |
           -------------------------------------------------

    * Orbital Energies and Occupations

         #    Occupation            Energy/Eh            Energy/eV
      -------------------------------------------------------------
         1        2.0000           -0.6676586             -18.1679
       ...           ...                  ...                  ...
         6        2.0000           -0.5539921             -15.0749
         7        2.0000           -0.5367959             -14.6070
         8        2.0000           -0.5360041             -14.5854
         9        2.0000           -0.4996650             -13.5966
        10        2.0000           -0.4915277             -13.3752
        11        2.0000           -0.4857405             -13.2177
        12        2.0000           -0.4699459             -12.7879
        13        2.0000           -0.4469421             -12.1619
        14        2.0000           -0.4346533             -11.8275
        15        2.0000           -0.4324359             -11.7672
        16        2.0000           -0.4080477             -11.1035
        17        2.0000           -0.4012124             -10.9175
        18        2.0000           -0.3644293              -9.9166 (HOMO)
        19                         -0.1056541              -2.8750 (LUMO)
        20                         -0.0106714              -0.2904
        21                          0.0152934               0.4162
        22                          0.0928689               2.5271
        23                          0.1037730               2.8238
        24                          0.1108814               3.0172
        25                          0.1126837               3.0663
        26                          0.1430542               3.8927
        27                          0.1481696               4.0319
        28                          0.1606116               4.3705
        29                          0.2091068               5.6901
       ...                                ...                  ...
        36                          0.5750219              15.6471
      -------------------------------------------------------------
                  HL-Gap            0.2587752 Eh            7.0416 eV
             Fermi-level           -0.2350417 Eh           -6.3958 eV

     #   Z          covCN         q      C6AA      α(0)
     1   6 C        4.088    -0.034    21.102     6.525
     2   6 C        4.088    -0.034    21.102     6.525
     3   6 C        4.088    -0.034    21.102     6.525
     4   6 C        4.088    -0.034    21.102     6.525
     5   6 C        3.956    -0.023    20.910     6.497
     6   6 C        3.956    -0.023    20.910     6.497
     7   6 C        3.824    -0.057    21.583     6.611
     8   1 H        0.926     0.026     2.642     2.542
     9   1 H        0.926     0.026     2.642     2.542
    10   1 H        0.926     0.026     2.642     2.542
    11   1 H        0.926     0.026     2.642     2.542
    12   1 H        0.926     0.030     2.588     2.516
    13   1 H        0.926     0.030     2.588     2.516
    14   1 H        0.924     0.038     2.475     2.460
    15   1 H        0.924     0.038     2.475     2.460

 Mol. C6AA /au·bohr⁶  :       2022.458587
 Mol. C8AA /au·bohr⁸  :      47299.849269
 Mol. α(0) /au        :         65.823794


Wiberg/Mayer (AO) data.
largest (>0.10) Wiberg bond orders for each atom

 ---------------------------------------------------------------------------
     #   Z sym  total        # sym  WBO       # sym  WBO       # sym  WBO
 ---------------------------------------------------------------------------
     1   6 C    3.933 --     3 C    0.983     8 H    0.974     2 C    0.962
                             5 C    0.959
     2   6 C    3.933 --     4 C    0.983     9 H    0.974     1 C    0.962
                             5 C    0.959
     3   6 C    3.933 --     1 C    0.983    10 H    0.974     4 C    0.962
                             6 C    0.959
     4   6 C    3.933 --     2 C    0.983    11 H    0.974     3 C    0.962
                             6 C    0.959
     5   6 C    3.949 --     7 C    1.007    12 H    0.972     2 C    0.959
                             1 C    0.959
     6   6 C    3.949 --     7 C    1.007    13 H    0.972     3 C    0.959
                             4 C    0.959
     7   6 C    3.998 --     5 C    1.007     6 C    1.007    14 H    0.969
                            15 H    0.969
     8   1 H    0.999 --     1 C    0.974
     9   1 H    0.999 --     2 C    0.974
    10   1 H    0.999 --     3 C    0.974
    11   1 H    0.999 --     4 C    0.974
    12   1 H    0.999 --     5 C    0.972
    13   1 H    0.999 --     6 C    0.972
    14   1 H    0.999 --     7 C    0.969
    15   1 H    0.999 --     7 C    0.969
 ---------------------------------------------------------------------------

Topologies differ in total number of bonds
Writing topology from bond orders to xtbtopo.mol

molecular dipole:
                 x           y           z       tot (Debye)
 q only:        0.000       0.141      -0.000
   full:        0.000       0.066      -0.000       0.169
molecular quadrupole (traceless):
                xx          xy          yy          xz          yz          zz
Note: The following floating-point exceptions are signalling: IEEE_UNDERFLOW_FLAG
normal termination of xtb
 q only:        0.256       0.000       0.243      -0.000       0.000      -0.499
  q+dip:        1.605      -0.002      -0.641      -0.000       0.000      -0.965
   full:        1.553      -0.001      -0.437      -0.000       0.000      -1.116


           -------------------------------------------------
          | TOTAL ENERGY              -18.997914791198 Eh   |
          | GRADIENT NORM               0.000912357420 Eh/α |
          | HOMO-LUMO GAP               7.041631276632 eV   |
           -------------------------------------------------
           ------------------------------------------------- 
          |               Molecular Dynamics                |
           ------------------------------------------------- 
 trajectories on xtb.trj or xtb.trj.<n>

 MD time /ps        :    2.00
 dt /fs             :    1.00
 SCC accuracy       :    2.00
 temperature /K     : 2500.00
 max steps          :  2000
 block length (av.) :  5000
 dumpstep(trj) /fs  :   10.00    10
 dumpstep(coords)/fs: 1000.00  1000
 H atoms mass (amu) :     1
 # deg. of freedom  :    45
 SHAKE off
 Berendsen THERMOSTAT on
         time (ps)    <Epot>      Ekin   <T>   T     Etot
      0    0.00      0.00000   0.4631    0.    0.   -18.53477
est. speed in wall clock h for 100 ps :  0.15
    200    0.20    -18.68100   0.2541 2787. 3566.   -18.57557
    400    0.40    -18.72837   0.2022 2751. 2838.   -18.59535
    600    0.60    -18.74559   0.1945 2731. 2730.   -18.61690
    800    0.80    -18.75475   0.2326 2710. 3264.   -18.59306
   1000    1.00    -18.76105   0.1865 2699. 2617.   -18.58992
   1200    1.20    -18.76529   0.2027 2682. 2845.   -18.63820
   1400    1.40    -18.76875   0.1424 2671. 1999.   -18.62073
   1600    1.60    -18.77156   0.1376 2660. 1931.   -18.63146
   1800    1.80    -18.77397   0.1716 2652. 2409.   -18.61458
 average properties 
 Epot               :  -18.775946812412975     
 Epot (accurate SCC):  -18.782015858365440     
 Ekin               :  0.18832239733959205     
 Etot               :  -18.587624415073382     
 T                  :   2643.0029219035937     
 thermostating problem
 normal exit of md()

------------------------------------------------------------------------
 * finished run on 2026/09/04 at 18:31:45.461     
------------------------------------------------------------------------
 total:
 * wall-time:     0 d,  0 h,  0 min, 10.285 sec
 *  cpu-time:     0 d,  0 h,  0 min, 12.708 sec
 * ratio c/w:     1.236 speedup
 SCF:
 * wall-time:     0 d,  0 h,  0 min,  0.005 sec
 *  cpu-time:     0 d,  0 h,  0 min,  0.007 sec
 * ratio c/w:     1.319 speedup
 MD:
 * wall-time:     0 d,  0 h,  0 min, 10.277 sec
 *  cpu-time:     0 d,  0 h,  0 min, 12.699 sec
 * ratio c/w:     1.236 speedup

