 Entering Gaussian System
 *********************************************
 Gaussian 98:
 frequency output generated by the xtb code
 *********************************************
                         Standard orientation:
 --------------------------------------------------------------------
  Center     Atomic     Atomic              Coordinates (Angstroms)
  Number     Number      Type              X           Y           Z
 --------------------------------------------------------------------
    1          6             0        1.208049   -0.422237    0.017718
    2          6             0        0.026381    0.536415    0.009321
    3          8             0       -1.172057   -0.219357    0.007546
    4          1             0       -1.931480    0.377401   -0.007402
    5          1             0        0.064386    1.178982    0.899341
    6          1             0        0.070813    1.173987   -0.883847
    7          1             0        2.138941    0.136256    0.016535
    8          1             0        1.165728   -1.052340    0.902111
    9          1             0        1.168922   -1.060838   -0.861334
 --------------------------------------------------------------------
     1 basis functions        1 primitive gaussians
     1 alpha electrons        1 beta electrons

 Harmonic frequencies (cm**-1), IR intensities (km*mol⁻¹),
 Raman scattering activities (A**4/amu), Raman depolarization ratios,
 reduced masses (AMU), force constants (mDyne/A) and normal coordinates:
                      1                      2                      3
                        a                      a                      a 
 Frequencies --   208.8280               273.0835               396.8812
 Red. masses --     2.7745                 1.9404                 9.9951
 Frc consts  --     0.0000                 0.0000                 0.0000
 IR Inten    --    16.9503               207.9427                17.7714
 Raman Activ --     0.0000                 0.0000                 0.0000
 Depolar     --     0.0000                 0.0000                 0.0000
 Atom AN      X      Y      Z        X      Y      Z        X      Y      Z
   1   6    -0.01  -0.00  -0.02     0.01   0.00  -0.10    -0.44  -0.06  -0.00
   2   6     0.00   0.01  -0.22    -0.00  -0.01   0.15     0.01   0.41   0.01
   3   8     0.01  -0.00   0.29    -0.01   0.01   0.20     0.53  -0.23   0.00
   4   1    -0.01  -0.01  -0.17     0.02   0.00  -0.93     0.00  -0.22  -0.02
   5   1     0.04   0.08  -0.12    -0.01  -0.03   0.07    -0.02   0.11   0.01
   6   1    -0.03  -0.07  -0.11    -0.00   0.02   0.06    -0.02   0.11  -0.00
   7   1    -0.00  -0.00   0.54     0.00   0.00  -0.15     0.01  -0.24  -0.01
   8   1    -0.33  -0.30  -0.24     0.10   0.03  -0.00    -0.28  -0.01  -0.00
   9   1     0.33   0.30  -0.24    -0.09  -0.03  -0.00    -0.30  -0.02   0.01
                      4                      5                      6
                        a                      a                      a 
 Frequencies --   841.3418               921.1492              1029.2352
 Red. masses --     2.0003                 8.4900                 6.3626
 Frc consts  --     0.0000                 0.0000                 0.0000
 IR Inten    --     0.8533                21.5178                64.8125
 Raman Activ --     0.0000                 0.0000                 0.0000
 Depolar     --     0.0000                 0.0000                 0.0000
 Atom AN      X      Y      Z        X      Y      Z        X      Y      Z
   1   6     0.00  -0.00  -0.14    -0.43  -0.00  -0.00    -0.21   0.43  -0.00
   2   6     0.00   0.00  -0.24    -0.16  -0.36  -0.00     0.31  -0.34  -0.01
   3   8    -0.00   0.00   0.10     0.45   0.22   0.00    -0.06  -0.16   0.01
   4   1    -0.00  -0.00  -0.02     0.11   0.05   0.00     0.36   0.43   0.00
   5   1     0.17  -0.39   0.22     0.09  -0.08  -0.00    -0.02  -0.10   0.00
   6   1    -0.17   0.40   0.22     0.09  -0.07   0.01     0.01  -0.09   0.00
   7   1     0.00  -0.00   0.15    -0.37   0.43  -0.00     0.08  -0.13   0.00
   8   1    -0.30   0.30   0.17     0.16   0.02   0.02    -0.27   0.10  -0.02
   9   1     0.30  -0.30   0.18     0.17   0.02  -0.02    -0.27   0.11   0.01
                      7                      8                      9
                        a                      a                      a 
 Frequencies --  1111.3045              1147.0089              1208.7226
 Red. masses --     9.4102                 5.0913                 4.4945
 Frc consts  --     0.0000                 0.0000                 0.0000
 IR Inten    --    74.3774                17.5922               139.4202
 Raman Activ --     0.0000                 0.0000                 0.0000
 Depolar     --     0.0000                 0.0000                 0.0000
 Atom AN      X      Y      Z        X      Y      Z        X      Y      Z
   1   6    -0.30  -0.02  -0.01     0.01   0.03  -0.31     0.00   0.29   0.04
   2   6     0.60   0.25   0.03    -0.03  -0.04   0.49     0.08  -0.37  -0.03
   3   8    -0.34  -0.26  -0.01     0.02   0.02  -0.16    -0.00   0.25  -0.00
   4   1    -0.13  -0.13  -0.01    -0.01  -0.01  -0.02    -0.46  -0.53  -0.01
   5   1     0.25   0.03   0.01     0.27   0.33  -0.14     0.25  -0.11  -0.00
   6   1     0.20  -0.00  -0.02    -0.25  -0.34  -0.13     0.18  -0.06   0.02
   7   1    -0.24   0.28   0.00     0.02  -0.02   0.14     0.11  -0.12  -0.02
   8   1     0.11   0.04   0.03    -0.25   0.24   0.08    -0.16   0.03  -0.03
   9   1     0.13   0.02  -0.02     0.20  -0.23   0.09    -0.22   0.08   0.01
                     10                     11                     12
                        a                      a                      a 
 Frequencies --  1268.7304              1349.5110              1400.7978
 Red. masses --     2.1270                 3.6049                 3.4871
 Frc consts  --     0.0000                 0.0000                 0.0000
 IR Inten    --     1.8278                16.3670                 9.2569
 Raman Activ --     0.0000                 0.0000                 0.0000
 Depolar     --     0.0000                 0.0000                 0.0000
 Atom AN      X      Y      Z        X      Y      Z        X      Y      Z
   1   6     0.00  -0.01   0.28     0.04  -0.15   0.01     0.37  -0.22   0.00
   2   6    -0.02   0.02  -0.09     0.39  -0.14   0.00    -0.17   0.05  -0.00
   3   8     0.00  -0.02  -0.10     0.04   0.17  -0.00    -0.02  -0.07   0.00
   4   1     0.05   0.06  -0.03    -0.14  -0.15   0.00     0.06   0.07  -0.00
   5   1     0.61  -0.04  -0.01    -0.53   0.03  -0.02     0.20   0.05  -0.03
   6   1    -0.63   0.07  -0.00    -0.57   0.03   0.01     0.21   0.05   0.03
   7   1    -0.00   0.00  -0.09    -0.15   0.21  -0.00    -0.23   0.44  -0.00
   8   1     0.16  -0.18  -0.05    -0.13   0.08   0.07    -0.43   0.15   0.10
   9   1    -0.14   0.17  -0.05    -0.13   0.09  -0.07    -0.43   0.14  -0.10
                     13                     14                     15
                        a                      a                      a 
 Frequencies --  1469.7119              1484.0882              1493.5549
 Red. masses --     1.5156                 1.8388                 1.5394
 Frc consts  --     0.0000                 0.0000                 0.0000
 IR Inten    --     1.5547                 3.7513                 2.4326
 Raman Activ --     0.0000                 0.0000                 0.0000
 Depolar     --     0.0000                 0.0000                 0.0000
 Atom AN      X      Y      Z        X      Y      Z        X      Y      Z
   1   6    -0.00  -0.00  -0.21     0.05   0.02  -0.00    -0.09  -0.19   0.00
   2   6     0.00  -0.01  -0.05    -0.02   0.26  -0.00    -0.05   0.00  -0.00
   3   8    -0.00  -0.00   0.00     0.04   0.04  -0.00     0.01   0.01  -0.00
   4   1     0.00   0.00  -0.00    -0.01  -0.01   0.00    -0.00  -0.00   0.00
   5   1     0.02  -0.00  -0.01    -0.03  -0.54   0.39     0.04  -0.08   0.05
   6   1    -0.02   0.04   0.01    -0.05  -0.55  -0.39     0.04  -0.08  -0.05
   7   1     0.00  -0.00   0.72    -0.03   0.07   0.03     0.13  -0.24  -0.00
   8   1     0.45   0.11   0.08    -0.05  -0.04  -0.04     0.13   0.51   0.38
   9   1    -0.45  -0.10   0.07    -0.08  -0.05   0.04     0.14   0.51  -0.39
                     16                     17                     18
                        a                      a                      a 
 Frequencies --  2860.6014              2895.4214              3039.3383
 Red. masses --     1.9812                 1.4158                 1.9051
 Frc consts  --     0.0000                 0.0000                 0.0000
 IR Inten    --   126.8859                92.5569                48.5363
 Raman Activ --     0.0000                 0.0000                 0.0000
 Depolar     --     0.0000                 0.0000                 0.0000
 Atom AN      X      Y      Z        X      Y      Z        X      Y      Z
   1   6     0.00   0.00   0.00    -0.01  -0.00  -0.00     0.00   0.06   0.28
   2   6     0.00  -0.00  -0.30    -0.00   0.19  -0.01    -0.00   0.00   0.02
   3   8    -0.00  -0.00  -0.01     0.02   0.02  -0.00     0.00  -0.00  -0.00
   4   1    -0.00  -0.00   0.01     0.00  -0.00   0.00    -0.00   0.00   0.00
   5   1     0.02   0.42   0.55    -0.02  -0.36  -0.57    -0.00  -0.01  -0.02
   6   1    -0.02  -0.40   0.53    -0.03  -0.37   0.60     0.00   0.01  -0.02
   7   1    -0.00  -0.00   0.00     0.02   0.01  -0.00     0.01   0.01   0.04
   8   1    -0.00   0.02  -0.02    -0.00   0.01  -0.01     0.02   0.27  -0.33
   9   1     0.00  -0.02  -0.02    -0.00   0.01   0.01    -0.04  -0.51  -0.69
                     19                     20                     21
                        a                      a                      a 
 Frequencies --  3047.3096              3051.1956              3516.1708
 Red. masses --     1.4676                 1.7825                 1.8764
 Frc consts  --     0.0000                 0.0000                 0.0000
 IR Inten    --    32.9383                43.3457                73.3396
 Raman Activ --     0.0000                 0.0000                 0.0000
 Depolar     --     0.0000                 0.0000                 0.0000
 Atom AN      X      Y      Z        X      Y      Z        X      Y      Z
   1   6    -0.00   0.18  -0.09    -0.22  -0.15   0.01     0.00  -0.00   0.00
   2   6    -0.00   0.01  -0.01    -0.01  -0.01   0.00     0.00  -0.00  -0.00
   3   8     0.00  -0.00   0.00    -0.00   0.00  -0.00     0.19  -0.15   0.00
   4   1    -0.01   0.01  -0.00    -0.00  -0.00   0.00    -0.77   0.60  -0.02
   5   1    -0.00  -0.00  -0.00     0.00   0.01   0.01     0.00  -0.00  -0.00
   6   1    -0.00  -0.01   0.02     0.00   0.01  -0.01     0.00  -0.00   0.00
   7   1     0.08   0.07  -0.01     0.82   0.50  -0.00    -0.00  -0.00  -0.00
   8   1    -0.04  -0.48   0.71    -0.02   0.03  -0.07     0.00   0.00  -0.01
   9   1    -0.02  -0.24  -0.38    -0.03   0.01   0.04    -0.00   0.00   0.01
