9
 energy: -11.399161093441 gnorm: 0.000792667340 xtb: 6.7.1 (unknown)
C            1.20804850744077       -0.42223716239251        0.01771774416456
C            0.02638092835750        0.53641524984339        0.00932102323583
O           -1.17205727821170       -0.21935665542185        0.00754612085737
H           -1.93147946999668        0.37740081437910       -0.00740185561968
H            0.06438591923056        1.17898217321112        0.89934138072483
H            0.07081287444656        1.17398647816534       -0.88384662477071
H            2.13894042475591        0.13625607676252        0.01653502393159
H            1.16572821133891       -1.05233988725041        0.90211111309851
H            1.16892162713250       -1.06083742811952       -0.86133441386977
