 Entering Gaussian System
 *********************************************
 Gaussian 98:
 frequency output generated by the xtb code
 *********************************************
                         Standard orientation:
 --------------------------------------------------------------------
  Center     Atomic     Atomic              Coordinates (Angstroms)
  Number     Number      Type              X           Y           Z
 --------------------------------------------------------------------
    1          8             0        0.960271   -0.329403   -0.529749
    2          7             0       -1.103928    0.033709    0.436773
    3          6             0        0.025277    0.426768    0.088686
    4          1             0       -1.295402   -0.941091    0.218592
    5          1             0        1.770001    0.158314   -0.714570
    6          1             0        0.294731    1.460855    0.293534
 --------------------------------------------------------------------
     1 basis functions        1 primitive gaussians
     1 alpha electrons        1 beta electrons

 Harmonic frequencies (cm**-1), IR intensities (km*mol⁻¹),
 Raman scattering activities (A**4/amu), Raman depolarization ratios,
 reduced masses (AMU), force constants (mDyne/A) and normal coordinates:
                      1                      2                      3
                        a                      a                      a 
 Frequencies --   424.5829               514.5824               789.9008
 Red. masses --     2.3232                10.2517                 7.4744
 Frc consts  --     0.0000                 0.0000                 0.0000
 IR Inten    --   156.3488                27.9135                74.2191
 Raman Activ --     0.0000                 0.0000                 0.0000
 Depolar     --     0.0000                 0.0000                 0.0000
 Atom AN      X      Y      Z        X      Y      Z        X      Y      Z
   1   8     0.09  -0.07   0.21    -0.48  -0.10   0.17    -0.07   0.05  -0.18
   2   7    -0.05   0.04  -0.12     0.30  -0.26  -0.20    -0.14   0.10  -0.33
   3   6     0.05  -0.04   0.13     0.11   0.46   0.09     0.22  -0.16   0.54
   4   1    -0.04   0.03  -0.10     0.40  -0.11  -0.20     0.19  -0.14   0.47
   5   1    -0.34   0.26  -0.83    -0.01  -0.24  -0.07    -0.01   0.00  -0.01
   6   1     0.04  -0.03   0.09     0.03   0.12   0.02    -0.15   0.11  -0.37
                      4                      5                      6
                        a                      a                      a 
 Frequencies --  1062.0134              1072.6826              1108.3907
 Red. masses --     1.9057                11.4545                 2.1343
 Frc consts  --     0.0000                 0.0000                 0.0000
 IR Inten    --    45.2168                56.4194                31.2682
 Raman Activ --     0.0000                 0.0000                 0.0000
 Depolar     --     0.0000                 0.0000                 0.0000
 Atom AN      X      Y      Z        X      Y      Z        X      Y      Z
   1   8     0.01  -0.01   0.01     0.44  -0.32  -0.28    -0.14  -0.13   0.02
   2   7    -0.06   0.05  -0.15    -0.37   0.03   0.16     0.04   0.13   0.02
   3   6    -0.08   0.06  -0.19    -0.27   0.35   0.22     0.05  -0.15  -0.06
   4   1     0.25  -0.18   0.60     0.40  -0.05  -0.19     0.40  -0.02  -0.17
   5   1    -0.00   0.00  -0.01     0.09  -0.05  -0.05    -0.37   0.65   0.35
   6   1     0.25  -0.19   0.61     0.04   0.07  -0.00     0.18  -0.07  -0.10
                      7                      8                      9
                        a                      a                      a 
 Frequencies --  1225.7308              1350.8743              1753.8641
 Red. masses --     6.6666                 2.5063                12.4093
 Frc consts  --     0.0000                 0.0000                 0.0000
 IR Inten    --   348.6303                57.9660               317.9947
 Raman Activ --     0.0000                 0.0000                 0.0000
 Depolar     --     0.0000                 0.0000                 0.0000
 Atom AN      X      Y      Z        X      Y      Z        X      Y      Z
   1   8    -0.07   0.36   0.14    -0.01  -0.06  -0.01     0.05   0.01  -0.02
   2   7    -0.22   0.15   0.14     0.05   0.23   0.05     0.56   0.20  -0.17
   3   6     0.05  -0.42  -0.15     0.11  -0.20  -0.11    -0.70  -0.20   0.23
   4   1     0.47  -0.04  -0.21     0.28   0.01  -0.11     0.09   0.08  -0.01
   5   1     0.19  -0.33  -0.18     0.01  -0.03  -0.01     0.04  -0.07  -0.04
   6   1     0.26  -0.15  -0.15    -0.80   0.09   0.36     0.01  -0.10  -0.04
                     10                     11                     12
                        a                      a                      a 
 Frequencies --  2982.8122              3365.1095              3534.5089
 Red. masses --     1.7735                 1.8577                 1.8733
 Frc consts  --     0.0000                 0.0000                 0.0000
 IR Inten    --    67.3791                 5.3323                27.3372
 Raman Activ --     0.0000                 0.0000                 0.0000
 Depolar     --     0.0000                 0.0000                 0.0000
 Atom AN      X      Y      Z        X      Y      Z        X      Y      Z
   1   8    -0.01   0.01   0.01    -0.00  -0.00   0.00    -0.20  -0.12   0.04
   2   7    -0.01  -0.00   0.00     0.07   0.24   0.05     0.00  -0.00  -0.00
   3   6     0.08   0.25   0.04    -0.01   0.01   0.01    -0.01  -0.00   0.00
   4   1     0.00   0.02   0.00    -0.21  -0.92  -0.19     0.00   0.01   0.00
   5   1     0.01   0.00  -0.00     0.01   0.01  -0.00     0.82   0.49  -0.19
   6   1    -0.24  -0.92  -0.18     0.00  -0.02  -0.01     0.00   0.01   0.00
