6
 energy: -10.625416851307 gnorm: 0.000548098621 xtb: 6.7.1 (unknown)
O            0.96027052226499       -0.32940290168355       -0.52974901153297
N           -1.10392801075713        0.03370867844855        0.43677276157335
C            0.02527741371972        0.42676747764070        0.08868632901908
H           -1.29540157403840       -0.94109100351855        0.21859209934397
H            1.77000034761536        0.15831385679039       -0.71457030589479
H            0.29473140907580        1.46085528049771        0.29353367335093
