 Entering Gaussian System
 *********************************************
 Gaussian 98:
 frequency output generated by the xtb code
 *********************************************
                         Standard orientation:
 --------------------------------------------------------------------
  Center     Atomic     Atomic              Coordinates (Angstroms)
  Number     Number      Type              X           Y           Z
 --------------------------------------------------------------------
    1          8             0        0.886164    0.479278   -0.469729
    2          7             0       -1.143687   -0.336207    0.096587
    3          6             0        0.190675   -0.414211   -0.067888
    4          1             0       -1.610933    0.527146   -0.131129
    5          1             0       -1.691052   -1.106586    0.433776
    6          1             0        0.586293   -1.408566    0.211560
 --------------------------------------------------------------------
     1 basis functions        1 primitive gaussians
     1 alpha electrons        1 beta electrons

 Harmonic frequencies (cm**-1), IR intensities (km*mol⁻¹),
 Raman scattering activities (A**4/amu), Raman depolarization ratios,
 reduced masses (AMU), force constants (mDyne/A) and normal coordinates:
                      1                      2                      3
                        a                      a                      a 
 Frequencies --   319.0803               533.6033               607.5107
 Red. masses --     3.3673                 9.4345                 4.0341
 Frc consts  --     0.0000                 0.0000                 0.0000
 IR Inten    --   240.3443                11.3968                57.2112
 Raman Activ --     0.0000                 0.0000                 0.0000
 Depolar     --     0.0000                 0.0000                 0.0000
 Atom AN      X      Y      Z        X      Y      Z        X      Y      Z
   1   8     0.01   0.02   0.06    -0.53   0.10   0.04    -0.03  -0.07  -0.22
   2   7    -0.05  -0.13  -0.39     0.29   0.17  -0.10    -0.03  -0.07  -0.20
   3   6     0.01   0.01   0.04     0.20  -0.40   0.11     0.05   0.12   0.36
   4   1     0.05   0.13   0.37     0.42   0.20  -0.13     0.10   0.23   0.69
   5   1     0.11   0.26   0.76    -0.22   0.24  -0.05    -0.06  -0.14  -0.43
   6   1    -0.01  -0.02  -0.07     0.13  -0.08   0.01     0.01   0.04   0.11
                      4                      5                      6
                        a                      a                      a 
 Frequencies --   957.1412              1019.4406              1241.4908
 Red. masses --     4.6617                 6.5157                 9.6794
 Frc consts  --     0.0000                 0.0000                 0.0000
 IR Inten    --     0.1372                21.0312                98.9655
 Raman Activ --     0.0000                 0.0000                 0.0000
 Depolar     --     0.0000                 0.0000                 0.0000
 Atom AN      X      Y      Z        X      Y      Z        X      Y      Z
   1   8     0.02   0.05   0.15    -0.31  -0.12   0.08    -0.07  -0.17   0.07
   2   7     0.01   0.02   0.06     0.30   0.39  -0.17     0.48  -0.18  -0.01
   3   6    -0.07  -0.17  -0.51     0.02  -0.15   0.05    -0.54   0.37  -0.05
   4   1     0.03   0.07   0.22    -0.39  -0.13   0.10     0.42   0.09  -0.09
   5   1     0.00   0.00   0.01     0.57  -0.23  -0.00     0.16  -0.05  -0.00
   6   1     0.11   0.25   0.74    -0.15  -0.09   0.05    -0.23   0.04   0.02
                      7                      8                      9
                        a                      a                      a 
 Frequencies --  1361.8986              1462.7972              1794.1924
 Red. masses --     2.4578                 4.4987                13.1988
 Frc consts  --     0.0000                 0.0000                 0.0000
 IR Inten    --     1.6869                76.3624               577.0571
 Raman Activ --     0.0000                 0.0000                 0.0000
 Depolar     --     0.0000                 0.0000                 0.0000
 Atom AN      X      Y      Z        X      Y      Z        X      Y      Z
   1   8    -0.01  -0.19   0.07     0.10   0.19  -0.08    -0.33  -0.43   0.19
   2   7    -0.13   0.13  -0.02    -0.41   0.01   0.05    -0.15  -0.03   0.03
   3   6    -0.18   0.02   0.02     0.14  -0.16   0.03     0.55   0.51  -0.25
   4   1     0.14   0.10  -0.05     0.47   0.26  -0.15     0.08   0.05  -0.03
   5   1     0.26  -0.16   0.02     0.45  -0.35   0.06    -0.00  -0.02   0.01
   6   1     0.80   0.29  -0.21    -0.25  -0.14   0.08    -0.07   0.05  -0.01
                     10                     11                     12
                        a                      a                      a 
 Frequencies --  2776.7091              3459.6560              3546.4606
 Red. masses --     1.6700                 1.4869                 2.1390
 Frc consts  --     0.0000                 0.0000                 0.0000
 IR Inten    --   147.7494                11.8884                 8.2613
 Raman Activ --     0.0000                 0.0000                 0.0000
 Depolar     --     0.0000                 0.0000                 0.0000
 Atom AN      X      Y      Z        X      Y      Z        X      Y      Z
   1   8     0.00  -0.02   0.01     0.00   0.00  -0.00    -0.00  -0.00   0.00
   2   7     0.01  -0.01   0.00    -0.17   0.09  -0.01     0.07   0.27  -0.10
   3   6     0.09  -0.22   0.06    -0.01   0.00  -0.00    -0.00   0.01  -0.00
   4   1     0.01  -0.01   0.00     0.39  -0.74   0.20     0.22  -0.38   0.10
   5   1     0.00  -0.00   0.00     0.24   0.38  -0.16    -0.46  -0.65   0.28
   6   1    -0.36   0.87  -0.24     0.00  -0.01   0.00    -0.00  -0.01   0.00
