6
 energy: -10.644270119988 gnorm: 0.000360906174 xtb: 6.7.1 (unknown)
O            0.88616359719769        0.47927836466007       -0.46972935801246
N           -1.14368657289045       -0.33620738068285        0.09658731120245
C            0.19067490525151       -0.41421131434134       -0.06788831525915
H           -1.61093320446187        0.52714603990781       -0.13112868463431
H           -1.69105151453323       -1.10658570268583        0.43377559923891
H            0.58629316598971       -1.40856630093469        0.21156046797708
