15
Properties=species:S:1:pos:R:3 energy:=T -18.997914791390=T gnorm:=T 0.000912961968=T xtb:=T 6.7.1=T (unknown)=T pbc="F F F"
C       -0.76743548      -0.71871343      -0.75173308
C       -0.76740496      -0.71869678       0.75177266
C        0.76636128      -0.71982554      -0.75175467
C        0.76639230      -0.71977096       0.75179544
C       -1.13952947       0.53044630       0.00001487
C        1.14027874       0.52880425      -0.00003302
C        0.00108314       1.51403794      -0.00001844
H       -1.39877968      -1.23529622      -1.45182596
H       -1.39871201      -1.23523536       1.45192800
H        1.39693131      -1.23732180      -1.45185949
H        1.39699726      -1.23723109       1.45190614
H       -2.16214679       0.87505966       0.00004521
H        2.16338871       0.87195147      -0.00007839
H        0.00151867       2.14737622      -0.88859879
H        0.00156175       2.14741544       0.88853502
