 Entering Gaussian System
 *********************************************
 Gaussian 98:
 frequency output generated by the xtb code
 *********************************************
                         Standard orientation:
 --------------------------------------------------------------------
  Center     Atomic     Atomic              Coordinates (Angstroms)
  Number     Number      Type              X           Y           Z
 --------------------------------------------------------------------
    1          8             0        0.816666   -0.652691   -0.118061
    2          7             0       -1.127516    0.449240   -0.238270
    3          6             0       -0.201991   -0.012330    0.465167
    4          1             0        1.463341   -0.961640    0.525993
    5          1             0       -1.864526    0.922032    0.270487
    6          1             0       -0.132481    0.056716    1.568126
 --------------------------------------------------------------------
     1 basis functions        1 primitive gaussians
     1 alpha electrons        1 beta electrons

 Harmonic frequencies (cm**-1), IR intensities (km*mol⁻¹),
 Raman scattering activities (A**4/amu), Raman depolarization ratios,
 reduced masses (AMU), force constants (mDyne/A) and normal coordinates:
                      1                      2                      3
                        a                      a                      a 
 Frequencies --   370.8378               550.4895               779.8550
 Red. masses --     2.6429                11.6411                 4.0341
 Frc consts  --     0.0000                 0.0000                 0.0000
 IR Inten    --   103.4558                 2.2023                31.7845
 Raman Activ --     0.0000                 0.0000                 0.0000
 Depolar     --     0.0000                 0.0000                 0.0000
 Atom AN      X      Y      Z        X      Y      Z        X      Y      Z
   1   8     0.12   0.22  -0.02     0.43  -0.22   0.20    -0.09  -0.16   0.02
   2   7    -0.10  -0.17   0.02    -0.44   0.27   0.14     0.05   0.08  -0.01
   3   6     0.06   0.11  -0.01    -0.01  -0.04  -0.50     0.23   0.40  -0.04
   4   1    -0.46  -0.80   0.08    -0.04   0.04   0.24    -0.07  -0.12   0.01
   5   1     0.05   0.09  -0.01     0.03   0.01   0.32    -0.39  -0.69   0.07
   6   1     0.06   0.11  -0.01    -0.02  -0.00  -0.14    -0.15  -0.26   0.03
                      4                      5                      6
                        a                      a                      a 
 Frequencies --   971.3839              1057.6396              1148.7028
 Red. masses --     4.0366                 6.7052                 3.6766
 Frc consts  --     0.0000                 0.0000                 0.0000
 IR Inten    --    32.0005               220.2734                42.1969
 Raman Activ --     0.0000                 0.0000                 0.0000
 Depolar     --     0.0000                 0.0000                 0.0000
 Atom AN      X      Y      Z        X      Y      Z        X      Y      Z
   1   8    -0.03  -0.05   0.00     0.39  -0.24  -0.21    -0.20   0.10  -0.13
   2   7    -0.14  -0.24   0.02    -0.16   0.11   0.17     0.20  -0.10   0.18
   3   6     0.21   0.36  -0.04    -0.19   0.13   0.20     0.13  -0.09  -0.17
   4   1     0.03   0.05  -0.01     0.01   0.00   0.07    -0.51   0.35   0.60
   5   1     0.24   0.42  -0.04    -0.39   0.16  -0.62    -0.03   0.01  -0.13
   6   1    -0.35  -0.61   0.06     0.10  -0.05   0.05     0.15  -0.09  -0.03
                      7                      8                      9
                        a                      a                      a 
 Frequencies --  1271.9983              1391.1132              1749.9626
 Red. masses --     8.2537                 3.3083                12.2769
 Frc consts  --     0.0000                 0.0000                 0.0000
 IR Inten    --   234.3322                36.2302               303.4114
 Raman Activ --     0.0000                 0.0000                 0.0000
 Depolar     --     0.0000                 0.0000                 0.0000
 Atom AN      X      Y      Z        X      Y      Z        X      Y      Z
   1   8     0.26  -0.19  -0.38     0.04  -0.02   0.05    -0.07   0.04  -0.01
   2   7     0.01  -0.03  -0.20    -0.09   0.02  -0.30    -0.44   0.22  -0.33
   3   6    -0.23   0.17   0.44    -0.19   0.13   0.19     0.62  -0.32   0.33
   4   1    -0.19   0.13   0.26    -0.01   0.01   0.04    -0.07   0.05   0.08
   5   1     0.20  -0.08   0.37     0.11  -0.04   0.19    -0.12   0.06  -0.04
   6   1    -0.31   0.18   0.09     0.76  -0.43   0.02    -0.02   0.02   0.09
                     10                     11                     12
                        a                      a                      a 
 Frequencies --  2734.3345              3410.2744              3535.5852
 Red. masses --     1.6774                 1.8884                 1.8719
 Frc consts  --     0.0000                 0.0000                 0.0000
 IR Inten    --   205.3459                 1.6264                34.3581
 Raman Activ --     0.0000                 0.0000                 0.0000
 Depolar     --     0.0000                 0.0000                 0.0000
 Atom AN      X      Y      Z        X      Y      Z        X      Y      Z
   1   8    -0.01   0.01   0.02    -0.00   0.00  -0.01    -0.16   0.08  -0.16
   2   7     0.01  -0.00   0.02    -0.20   0.13   0.11     0.01  -0.00  -0.00
   3   6     0.03   0.01   0.24     0.01  -0.00   0.02    -0.00   0.00  -0.01
   4   1     0.00  -0.00   0.01     0.02  -0.01   0.02     0.66  -0.31   0.64
   5   1    -0.02   0.01  -0.01     0.72  -0.46  -0.46    -0.02   0.01   0.01
   6   1    -0.05  -0.07  -0.97     0.00  -0.00  -0.01     0.00  -0.00   0.01
