      -----------------------------------------------------------      
     |                   =====================                   |     
     |                           x T B                           |     
     |                   =====================                   |     
     |                         S. Grimme                         |     
     |          Mulliken Center for Theoretical Chemistry        |     
     |                    University of Bonn                     |     
      -----------------------------------------------------------      

   * xtb version 6.7.1 (unknown) compiled by 'runner@Mac-1732184002186.local' on 2024-11-21

   xtb is free software: you can redistribute it and/or modify it under
   the terms of the GNU Lesser General Public License as published by
   the Free Software Foundation, either version 3 of the License, or
   (at your option) any later version.
   
   xtb is distributed in the hope that it will be useful,
   but WITHOUT ANY WARRANTY; without even the implied warranty of
   MERCHANTABILITY or FITNESS FOR A PARTICULAR PURPOSE.  See the
   GNU Lesser General Public License for more details.
   
   Cite this work as:
   * C. Bannwarth, E. Caldeweyher, S. Ehlert, A. Hansen, P. Pracht,
     J. Seibert, S. Spicher, S. Grimme, WIREs Comput. Mol. Sci., 2020, 11,
     e01493. DOI: 10.1002/wcms.1493
   
   for GFN2-xTB:
   * C. Bannwarth, S. Ehlert and S. Grimme., J. Chem. Theory Comput., 2019,
     15, 1652-1671. DOI: 10.1021/acs.jctc.8b01176
   for GFN1-xTB:
   * S. Grimme, C. Bannwarth, P. Shushkov, J. Chem. Theory Comput., 2017,
     13, 1989-2009. DOI: 10.1021/acs.jctc.7b00118
   for GFN0-xTB:
   * P. Pracht, E. Caldeweyher, S. Ehlert, S. Grimme, ChemRxiv, 2019, preprint.
     DOI: 10.26434/chemrxiv.8326202.v1
   for GFN-FF:
   * S. Spicher and S. Grimme, Angew. Chem. Int. Ed., 2020, 59, 15665-15673.
     DOI: 10.1002/anie.202004239
   
   for ALPB and GBSA implicit solvation:
   * S. Ehlert, M. Stahn, S. Spicher, S. Grimme, J. Chem. Theory Comput.,
     2021, 17, 4250-4261. DOI: 10.1021/acs.jctc.1c00471
   
   for ddCOSMO and CPCM-X implicit solvation:
   * M. Stahn, S. Ehlert, S. Grimme, J. Phys. Chem. A,
     2023, XX, XXXX-XXXX. DOI: 10.1021/acs.jpca.3c04382
   
   for DFT-D4:
   * E. Caldeweyher, C. Bannwarth and S. Grimme, J. Chem. Phys., 2017,
     147, 034112. DOI: 10.1063/1.4993215
   * E. Caldeweyher, S. Ehlert, A. Hansen, H. Neugebauer, S. Spicher,
     C. Bannwarth and S. Grimme, J. Chem. Phys., 2019, 150, 154122.
     DOI: 10.1063/1.5090222
   * E. Caldeweyher, J.-M. Mewes, S. Ehlert and S. Grimme, Phys. Chem. Chem. Phys.
     2020, 22, 8499-8512. DOI: 10.1039/D0CP00502A
   
   for sTDA-xTB:
   * S. Grimme and C. Bannwarth, J. Chem. Phys., 2016, 145, 054103.
     DOI: 10.1063/1.4959605
   
   in the mass-spec context:
   * V. Asgeirsson, C. Bauer and S. Grimme, Chem. Sci., 2017, 8, 4879.
     DOI: 10.1039/c7sc00601b
   * J. Koopman and S. Grimme, ACS Omega 2019, 4, 12, 15120-15133.
     DOI: 10.1021/acsomega.9b02011
   
   for metadynamics refer to:
   * S. Grimme, J. Chem. Theory Comput., 2019, 155, 2847-2862
     DOI: 10.1021/acs.jctc.9b00143
   
   for SPH calculations refer to:
   * S. Spicher and S. Grimme, J. Chem. Theory Comput., 2021, 17, 1701-1714
     DOI: 10.1021/acs.jctc.0c01306
   
   for ONIOM refer to:
   * C. Plett, A. Katbashev, S. Ehlert, S. Grimme, M. Bursch,
     Phys. Chem. Chem. Phys., 2023, 25, 17860-17868. DOI: 10.1039/D3CP02178E
   
   for DIPRO refer to:
   * J. Kohn, N. Gildemeister, S. Grimme, D. Fazzi, A. Hansen,
     J. Chem. Phys., 2023, just accepted.
   
   for PTB refer to:
   * S. Grimme, M. Mueller, A. Hansen, J. Chem. Phys., 2023, 158, 124111.
     DOI: 10.1063/5.0137838
   
   with help from (in alphabetical order)
   P. Atkinson, C. Bannwarth, F. Bohle, G. Brandenburg, E. Caldeweyher
   M. Checinski, S. Dohm, S. Ehlert, S. Ehrlich, I. Gerasimov, C. Hölzer
   A. Katbashev, J. Kohn, J. Koopman, C. Lavigne, S. Lehtola, F. März, M. Müller,
   F. Musil, H. Neugebauer, J. Pisarek, C. Plett, P. Pracht, F. Pultar,
   J. Seibert, P. Shushkov, S. Spicher, M. Stahn, M. Steiner, T. Strunk,
   J. Stückrath, T. Rose, and J. Unsleber
   
 * started run on 2026/09/04 at 18:32:13.039     
   ID    Z sym.   atoms
    1    8 O      1
    2    7 N      2
    3    6 C      3
    4    1 H      4-6

           -------------------------------------------------
          |                Calculation Setup                |
           -------------------------------------------------

          program call               : /opt/homebrew/bin/xtb temp_frame_opt.xyz --chrg 0 --uhf 0 --gfn 2 --acc 1.0 --etemp 300.0 --parallel 1 --ohess normal --input control.txt
          coordinate file            : temp_frame_opt.xyz
          omp threads                :                     1


molecular fragmentation (1/2 indicates fragments):
111112
# atoms in fragment 1/2:     5     1
 fragment masses (1/2) :       44.03        1.01
CMA distance (Bohr)    :   3.706
constraining FC (au)   :  0.0500

           -------------------------------------------------
          |                 G F N 2 - x T B                 |
           -------------------------------------------------

        Reference                      10.1021/acs.jctc.8b01176
      * Hamiltonian:
        H0-scaling (s, p, d)           1.850000    2.230000    2.230000
        zeta-weighting                 0.500000
      * Dispersion:
        s8                             2.700000
        a1                             0.520000
        a2                             5.000000
        s9                             5.000000
      * Repulsion:
        kExp                           1.500000    1.000000
        rExp                           1.000000
      * Coulomb:
        alpha                          2.000000
        third order                    shell-resolved
        anisotropic                    true
        a3                             3.000000
        a5                             4.000000
        cn-shift                       1.200000
        cn-exp                         4.000000
        max-rad                        5.000000

q/qsh data taken from xtbrestart
CAMM data taken from xtbrestart

          ...................................................
          :                      SETUP                      :
          :.................................................:
          :  # basis functions                  15          :
          :  # atomic orbitals                  15          :
          :  # shells                            9          :
          :  # electrons                        18          :
          :  max. iterations                   250          :
          :  Hamiltonian                  GFN2-xTB          :
          :  restarted?                       true          :
          :  GBSA solvation                  false          :
          :  PC potential                    false          :
          :  electronic temp.          300.0000000     K    :
          :  accuracy                    1.0000000          :
          :  -> integral cutoff          0.2500000E+02      :
          :  -> integral neglect         0.1000000E-07      :
          :  -> SCF convergence          0.1000000E-05 Eh   :
          :  -> wf. convergence          0.1000000E-03 e    :
          :  Broyden damping             0.4000000          :
          :  net charge                          0          :
          :  unpaired electrons                  0          :
          ...................................................

 iter      E             dE          RMSdq      gap      omega  full diag
   1    -10.5332362 -0.105332E+02  0.428E+00    3.38       0.0  T
   2    -10.5311448  0.209135E-02  0.310E+00    3.64       1.0  T
   3    -10.5449809 -0.138361E-01  0.192E+00    3.22       1.0  T
   4    -10.5525355 -0.755458E-02  0.327E-01    3.33       1.0  T
   5    -10.5528464 -0.310934E-03  0.924E-02    3.30       1.0  T
   6    -10.5528463  0.357044E-07  0.228E-02    3.31       1.8  T
   7    -10.5528478 -0.146950E-05  0.873E-03    3.30       4.7  T
   8    -10.5528480 -0.212521E-06  0.205E-03    3.30      19.9  T
   9    -10.5528480 -0.134101E-07  0.871E-04    3.30      46.9  T
  10    -10.5528480 -0.239914E-08  0.876E-05    3.30     466.2  T

   *** convergence criteria satisfied after 10 iterations ***

         #    Occupation            Energy/Eh            Energy/eV
      -------------------------------------------------------------
         1        2.0000           -0.7290932             -19.8396
       ...           ...                  ...                  ...
         3        2.0000           -0.6119386             -16.6517
         4        2.0000           -0.5895939             -16.0437
         5        2.0000           -0.5563110             -15.1380
         6        2.0000           -0.4886097             -13.2957
         7        2.0000           -0.4630191             -12.5994
         8        2.0000           -0.4437520             -12.0751
         9        2.0000           -0.4214109             -11.4672 (HOMO)
        10                         -0.3000062              -8.1636 (LUMO)
        11                         -0.1857634              -5.0549
        12                          0.0054284               0.1477
        13                          0.0592954               1.6135
        14                          0.1681314               4.5751
        15                          0.2830119               7.7011
      -------------------------------------------------------------
                  HL-Gap            0.1214047 Eh            3.3036 eV
             Fermi-level           -0.3607085 Eh           -9.8154 eV

 SCC (total)                   0 d,  0 h,  0 min,  0.001 sec
 SCC setup                      ...        0 min,  0.000 sec (  3.343%)
 Dispersion                     ...        0 min,  0.000 sec (  1.232%)
 classical contributions        ...        0 min,  0.000 sec (  0.381%)
 integral evaluation            ...        0 min,  0.000 sec ( 11.701%)
 iterations                     ...        0 min,  0.000 sec ( 47.742%)
 molecular gradient             ...        0 min,  0.000 sec ( 27.419%)
 printout                       ...        0 min,  0.000 sec (  7.507%)

         :::::::::::::::::::::::::::::::::::::::::::::::::::::
         ::                     SUMMARY                     ::
         :::::::::::::::::::::::::::::::::::::::::::::::::::::
         :: total energy             -10.497084067337 Eh    ::
         :: gradient norm              0.230878579138 Eh/a0 ::
         :: HOMO-LUMO gap              3.303590985208 eV    ::
         ::.................................................::
         :: SCC energy               -10.552847924931 Eh    ::
         :: -> isotropic ES            0.031613460370 Eh    ::
         :: -> anisotropic ES          0.003189742629 Eh    ::
         :: -> anisotropic XC          0.008538762333 Eh    ::
         :: -> dispersion             -0.001915288356 Eh    ::
         :: repulsion energy           0.055763857595 Eh    ::
         :: add. restraining           0.000000000000 Eh    ::
         :: total charge               0.000000000000 e     ::
         :::::::::::::::::::::::::::::::::::::::::::::::::::::

      ----------------------------------------------------------- 
     |                       L-ANC optimizer                     |
      ----------------------------------------------------------- 
          low memory version by Sebastian Ehlert

          ...................................................
          :                      SETUP                      :
          :.................................................:
          :   energy convergence        0.5000000E-05 Eh    :
          :   grad. convergence         0.1000000E-02 Eh/a0 :
          :   optimization log               true           :
          :   writing optlog all                1     steps :
          :   Hessian reset                    25     steps :
          :   maximium step len.        1.0000000     a0    :
          :   LBFGS images                     25           :
          ...................................................
 * calculating model hessian...
Using Lindh-Hessian (1995)
 Shifting diagonal of input Hessian by    1.0000000000000000E-002
 Lowest  eigenvalues of input Hessian
    0.000000    0.000000    0.000000    0.000000    0.000000    0.000000
    0.020186    0.028065    0.036044    0.047636    0.130305    0.170213
    0.283023    0.297262    0.985782    1.037290    1.400747    1.571550
 Highest eigenvalues
    0.283023    0.297262    0.985782    1.037290    1.400747    1.571550


........................................................................
.............................. CYCLE    1 ..............................
........................................................................

 iter      E             dE          RMSdq      gap      omega  full diag
   1    -10.6468404 -0.106468E+02  0.111E+00    4.07       0.0  T
   2    -10.6470351 -0.194644E-03  0.668E-01    3.97       1.0  T
   3    -10.6466354  0.399688E-03  0.456E-01    4.07       1.0  T
   4    -10.6473626 -0.727226E-03  0.435E-02    3.99       1.0  T
   5    -10.6473644 -0.178643E-05  0.138E-02    3.99       3.0  T
   6    -10.6473645 -0.786144E-07  0.367E-03    3.99      11.1  T
   7    -10.6473645 -0.645677E-08  0.155E-03    3.99      26.4  T
   8    -10.6473645 -0.999636E-09  0.293E-04    3.99     139.4  T
   9    -10.6473645 -0.154829E-09  0.103E-04    3.99     397.3  T
     SCC iter.                  ...        0 min,  0.000 sec
     gradient                   ...        0 min,  0.000 sec
 * total energy  :   -10.5716544 Eh     change       -0.7457036E-01 Eh
   gradient norm :     0.1414537 Eh/a0  converged?    E=F G=F D=F
   step length   :     0.5656975 a0

........................................................................
.............................. CYCLE    2 ..............................
........................................................................

 iter      E             dE          RMSdq      gap      omega  full diag
   1    -10.7217701 -0.107218E+02  0.232E+00    3.66       0.0  T
   2    -10.7227990 -0.102891E-02  0.139E+00    3.52       1.0  T
   3    -10.7221894  0.609626E-03  0.608E-01    3.68       1.0  T
   4    -10.7232854 -0.109609E-02  0.898E-02    3.58       1.0  T
   5    -10.7232932 -0.774336E-05  0.137E-02    3.58       3.0  T
   6    -10.7232933 -0.842883E-07  0.468E-03    3.58       8.7  T
   7    -10.7232933 -0.342180E-07  0.114E-03    3.58      35.8  T
   8    -10.7232933 -0.467336E-09  0.209E-04    3.58     195.3  T
   9    -10.7232933 -0.289919E-10  0.760E-05    3.58     537.3  T
     SCC iter.                  ...        0 min,  0.000 sec
     gradient                   ...        0 min,  0.000 sec
 * total energy  :   -10.5705446 Eh     change        0.1109785E-02 Eh
   gradient norm :     0.1884914 Eh/a0  converged?    E=F G=F D=F
   step length   :     2.2952576 a0

........................................................................
.............................. CYCLE    3 ..............................
........................................................................

 iter      E             dE          RMSdq      gap      omega  full diag
   1    -10.6979806 -0.106980E+02  0.133E+00    4.00       0.0  T
   2    -10.6984265 -0.445910E-03  0.791E-01    4.02       1.0  T
   3    -10.6982669  0.159598E-03  0.253E-01    3.93       1.0  T
   4    -10.6985084 -0.241461E-03  0.111E-01    3.99       1.0  T
   5    -10.6985319 -0.234414E-04  0.308E-02    3.98       1.3  T
   6    -10.6985325 -0.660815E-06  0.771E-03    3.98       5.3  T
   7    -10.6985325 -0.261421E-07  0.173E-03    3.98      23.6  T
   8    -10.6985325 -0.125959E-08  0.347E-04    3.98     117.7  T
   9    -10.6985325 -0.857430E-10  0.139E-04    3.98     294.6  T
     SCC iter.                  ...        0 min,  0.000 sec
     gradient                   ...        0 min,  0.000 sec
 * total energy  :   -10.6059117 Eh     change       -0.3536706E-01 Eh
   gradient norm :     0.0659129 Eh/a0  converged?    E=F G=F D=F
   step length   :     0.6564872 a0

........................................................................
.............................. CYCLE    4 ..............................
........................................................................

 iter      E             dE          RMSdq      gap      omega  full diag
   1    -10.6993671 -0.106994E+02  0.998E-01    4.13       0.0  T
   2    -10.6994785 -0.111376E-03  0.559E-01    4.17       1.0  T
   3    -10.6993211  0.157358E-03  0.250E-01    4.11       1.0  T
   4    -10.6995317 -0.210511E-03  0.334E-02    4.16       1.2  T
   5    -10.6995333 -0.165118E-05  0.129E-02    4.15       3.2  T
   6    -10.6995334 -0.510438E-07  0.360E-03    4.15      11.3  T
   7    -10.6995334 -0.101796E-07  0.893E-04    4.15      45.7  T
   8    -10.6995334 -0.363670E-09  0.137E-04    4.15     298.4  T
     SCC iter.                  ...        0 min,  0.000 sec
     gradient                   ...        0 min,  0.000 sec
 * total energy  :   -10.6064015 Eh     change       -0.4898325E-03 Eh
   gradient norm :     0.0609520 Eh/a0  converged?    E=F G=F D=F
   step length   :     0.3992807 a0

........................................................................
.............................. CYCLE    5 ..............................
........................................................................

 iter      E             dE          RMSdq      gap      omega  full diag
   1    -10.7192749 -0.107193E+02  0.710E-01    4.27       0.0  T
   2    -10.7193910 -0.116024E-03  0.389E-01    4.21       1.0  T
   3    -10.7193404  0.505343E-04  0.223E-01    4.27       1.0  T
   4    -10.7194571 -0.116710E-03  0.205E-02    4.23       2.0  T
   5    -10.7194575 -0.408079E-06  0.826E-03    4.23       4.9  T
   6    -10.7194576 -0.231359E-07  0.179E-03    4.23      22.8  T
   7    -10.7194576 -0.157062E-08  0.416E-04    4.23      98.0  T
   8    -10.7194576 -0.909619E-10  0.110E-04    4.23     371.9  T
     SCC iter.                  ...        0 min,  0.000 sec
     gradient                   ...        0 min,  0.000 sec
 * total energy  :   -10.6121220 Eh     change       -0.5720442E-02 Eh
   gradient norm :     0.0261981 Eh/a0  converged?    E=F G=F D=F
   step length   :     0.2866137 a0

........................................................................
.............................. CYCLE    6 ..............................
........................................................................

 iter      E             dE          RMSdq      gap      omega  full diag
   1    -10.7213363 -0.107213E+02  0.324E-01    4.22       0.0  T
   2    -10.7214213 -0.850895E-04  0.198E-01    4.19       1.0  T
   3    -10.7214244 -0.302752E-05  0.960E-02    4.21       1.0  T
   4    -10.7214385 -0.141700E-04  0.310E-02    4.19       1.3  T
   5    -10.7214404 -0.187299E-05  0.778E-03    4.19       5.2  T
   6    -10.7214404 -0.142051E-07  0.110E-03    4.19      37.3  T
   7    -10.7214404 -0.351063E-09  0.234E-04    4.19     174.7  T
   8    -10.7214404 -0.237534E-10  0.732E-05    4.19     557.9  T
     SCC iter.                  ...        0 min,  0.000 sec
     gradient                   ...        0 min,  0.000 sec
 * total energy  :   -10.6127759 Eh     change       -0.6539227E-03 Eh
   gradient norm :     0.0227436 Eh/a0  converged?    E=F G=F D=F
   step length   :     0.1996610 a0

........................................................................
.............................. CYCLE    7 ..............................
........................................................................

 iter      E             dE          RMSdq      gap      omega  full diag
   1    -10.7240079 -0.107240E+02  0.129E-01    4.26       0.0  T
   2    -10.7240104 -0.250074E-05  0.720E-02    4.25       1.0  T
   3    -10.7240084  0.201679E-05  0.342E-02    4.26       1.2  T
   4    -10.7240117 -0.327773E-05  0.553E-03    4.26       7.4  T
   5    -10.7240117 -0.713604E-08  0.121E-03    4.26      33.8  T
   6    -10.7240117 -0.413133E-09  0.371E-04    4.26     110.2  T
   7    -10.7240117 -0.418527E-10  0.792E-05    4.26     515.7  T
     SCC iter.                  ...        0 min,  0.000 sec
     gradient                   ...        0 min,  0.000 sec
 * total energy  :   -10.6135566 Eh     change       -0.7806740E-03 Eh
   gradient norm :     0.0155082 Eh/a0  converged?    E=F G=F D=F
   step length   :     0.0937079 a0

........................................................................
.............................. CYCLE    8 ..............................
........................................................................

 iter      E             dE          RMSdq      gap      omega  full diag
   1    -10.7204221 -0.107204E+02  0.371E-01    4.29       0.0  T
   2    -10.7204851 -0.629827E-04  0.204E-01    4.27       1.0  T
   3    -10.7204764  0.868345E-05  0.103E-01    4.29       1.0  T
   4    -10.7204965 -0.201022E-04  0.208E-02    4.28       2.0  T
   5    -10.7204974 -0.930108E-06  0.792E-03    4.28       5.2  T
   6    -10.7204974 -0.177517E-07  0.113E-03    4.28      36.1  T
   7    -10.7204974 -0.105192E-08  0.246E-04    4.28     165.6  T
   8    -10.7204974 -0.614264E-11  0.547E-05    4.28     746.4  T
     SCC iter.                  ...        0 min,  0.000 sec
     gradient                   ...        0 min,  0.000 sec
 * total energy  :   -10.6142461 Eh     change       -0.6895735E-03 Eh
   gradient norm :     0.0332807 Eh/a0  converged?    E=F G=F D=F
   step length   :     0.2768435 a0

........................................................................
.............................. CYCLE    9 ..............................
........................................................................

 iter      E             dE          RMSdq      gap      omega  full diag
   1    -10.7308380 -0.107308E+02  0.265E-01    4.43       0.0  T
   2    -10.7308694 -0.314455E-04  0.146E-01    4.43       1.0  T
   3    -10.7308726 -0.320883E-05  0.419E-02    4.43       1.0  T
   4    -10.7308732 -0.603411E-06  0.152E-02    4.44       2.7  T
   5    -10.7308737 -0.417531E-06  0.855E-03    4.43       4.8  T
   6    -10.7308737 -0.572831E-07  0.117E-03    4.43      35.0  T
   7    -10.7308737 -0.101413E-08  0.339E-04    4.43     120.6  T
   8    -10.7308737 -0.714202E-10  0.870E-05    4.43     469.3  T
     SCC iter.                  ...        0 min,  0.000 sec
     gradient                   ...        0 min,  0.000 sec
 * total energy  :   -10.6138126 Eh     change        0.4335214E-03 Eh
   gradient norm :     0.0484763 Eh/a0  converged?    E=F G=F D=F
   step length   :     0.1414545 a0

........................................................................
.............................. CYCLE   10 ..............................
........................................................................

 iter      E             dE          RMSdq      gap      omega  full diag
   1    -10.7280928 -0.107281E+02  0.261E-01    4.45       0.0  T
   2    -10.7281190 -0.262283E-04  0.150E-01    4.44       1.0  T
   3    -10.7281162  0.280371E-05  0.625E-02    4.45       1.0  T
   4    -10.7281242 -0.792609E-05  0.167E-02    4.44       2.4  T
   5    -10.7281247 -0.498851E-06  0.723E-03    4.44       5.7  T
   6    -10.7281247 -0.231971E-07  0.124E-03    4.44      33.0  T
   7    -10.7281247 -0.133055E-08  0.355E-04    4.44     114.9  T
   8    -10.7281247 -0.704645E-10  0.646E-05    4.44     632.2  T
     SCC iter.                  ...        0 min,  0.000 sec
     gradient                   ...        0 min,  0.000 sec
 * total energy  :   -10.6153992 Eh     change       -0.1586531E-02 Eh
   gradient norm :     0.0231248 Eh/a0  converged?    E=F G=F D=F
   step length   :     0.1768466 a0

........................................................................
.............................. CYCLE   11 ..............................
........................................................................

 iter      E             dE          RMSdq      gap      omega  full diag
   1    -10.7262159 -0.107262E+02  0.115E-01    4.33       0.0  T
   2    -10.7262319 -0.159872E-04  0.677E-02    4.32       1.0  T
   3    -10.7262324 -0.501253E-06  0.315E-02    4.32       1.3  T
   4    -10.7262328 -0.472696E-06  0.148E-02    4.32       2.8  T
   5    -10.7262334 -0.528423E-06  0.369E-03    4.32      11.1  T
   6    -10.7262334 -0.610791E-08  0.112E-03    4.32      36.3  T
   7    -10.7262334 -0.739837E-09  0.231E-04    4.32     176.9  T
   8    -10.7262334 -0.288018E-10  0.447E-05    4.32     914.0  T
     SCC iter.                  ...        0 min,  0.000 sec
     gradient                   ...        0 min,  0.000 sec
 * total energy  :   -10.6156656 Eh     change       -0.2664444E-03 Eh
   gradient norm :     0.0153599 Eh/a0  converged?    E=F G=F D=F
   step length   :     0.0601005 a0

........................................................................
.............................. CYCLE   12 ..............................
........................................................................

 iter      E             dE          RMSdq      gap      omega  full diag
   1    -10.7261906 -0.107262E+02  0.768E-02    4.35       0.0  T
   2    -10.7261911 -0.492126E-06  0.466E-02    4.35       1.0  T
   3    -10.7261910  0.120024E-06  0.955E-03    4.35       4.3  T
   4    -10.7261913 -0.350282E-06  0.348E-03    4.35      11.7  T
   5    -10.7261913 -0.724388E-08  0.114E-03    4.35      35.7  T
   6    -10.7261913 -0.271726E-09  0.273E-04    4.35     149.7  T
   7    -10.7261913 -0.390585E-10  0.701E-05    4.35     582.1  T
     SCC iter.                  ...        0 min,  0.000 sec
     gradient                   ...        0 min,  0.000 sec
 * total energy  :   -10.6159281 Eh     change       -0.2624984E-03 Eh
   gradient norm :     0.0092450 Eh/a0  converged?    E=F G=F D=F
   step length   :     0.0696111 a0

........................................................................
.............................. CYCLE   13 ..............................
........................................................................

 iter      E             dE          RMSdq      gap      omega  full diag
   1    -10.7265166 -0.107265E+02  0.134E-01    4.40       0.0  T
   2    -10.7265178 -0.128977E-05  0.799E-02    4.40       1.0  T
   3    -10.7265185 -0.613363E-06  0.845E-03    4.40       4.8  T
   4    -10.7265185  0.233480E-08  0.338E-03    4.40      12.1  T
   5    -10.7265185 -0.268871E-07  0.129E-03    4.40      31.6  T
   6    -10.7265185 -0.172700E-08  0.378E-04    4.40     108.1  T
   7    -10.7265185 -0.266542E-10  0.115E-04    4.40     355.2  T
     SCC iter.                  ...        0 min,  0.000 sec
     gradient                   ...        0 min,  0.000 sec
 * total energy  :   -10.6161704 Eh     change       -0.2423501E-03 Eh
   gradient norm :     0.0058802 Eh/a0  converged?    E=F G=F D=F
   step length   :     0.1225354 a0

........................................................................
.............................. CYCLE   14 ..............................
........................................................................

 iter      E             dE          RMSdq      gap      omega  full diag
   1    -10.7265601 -0.107266E+02  0.439E-02    4.40       0.0  T
   2    -10.7265605 -0.392667E-06  0.263E-02    4.40       1.6  T
   3    -10.7265603  0.214281E-06  0.110E-02    4.40       3.7  T
   4    -10.7265607 -0.386847E-06  0.225E-03    4.40      18.2  T
   5    -10.7265607 -0.335208E-08  0.991E-04    4.40      41.2  T
   6    -10.7265607 -0.251481E-09  0.172E-04    4.40     237.5  T
     SCC iter.                  ...        0 min,  0.000 sec
     gradient                   ...        0 min,  0.000 sec
 * total energy  :   -10.6162131 Eh     change       -0.4266057E-04 Eh
   gradient norm :     0.0034716 Eh/a0  converged?    E=F G=F D=F
   step length   :     0.0357087 a0

........................................................................
.............................. CYCLE   15 ..............................
........................................................................

 iter      E             dE          RMSdq      gap      omega  full diag
   1    -10.7264162 -0.107264E+02  0.526E-02    4.40       0.0  T
   2    -10.7264168 -0.572494E-06  0.311E-02    4.40       1.3  T
   3    -10.7264165  0.240323E-06  0.120E-02    4.40       3.4  T
   4    -10.7264170 -0.406861E-06  0.251E-03    4.40      16.2  T
   5    -10.7264170 -0.807567E-08  0.125E-03    4.40      32.6  T
   6    -10.7264170 -0.309452E-09  0.134E-04    4.40     304.1  T
   7    -10.7264170 -0.969358E-11  0.315E-05    4.40    1296.4  T
     SCC iter.                  ...        0 min,  0.000 sec
     gradient                   ...        0 min,  0.000 sec
 * total energy  :   -10.6162318 Eh     change       -0.1872917E-04 Eh
   gradient norm :     0.0031880 Eh/a0  converged?    E=F G=F D=F
   step length   :     0.0469343 a0

........................................................................
.............................. CYCLE   16 ..............................
........................................................................

 iter      E             dE          RMSdq      gap      omega  full diag
   1    -10.7276433 -0.107276E+02  0.248E-02    4.40       0.0  T
   2    -10.7276435 -0.156486E-06  0.142E-02    4.40       2.9  T
   3    -10.7276434  0.240081E-07  0.543E-03    4.40       7.5  T
   4    -10.7276435 -0.836828E-07  0.172E-03    4.40      23.7  T
   5    -10.7276435 -0.263491E-08  0.680E-04    4.40      60.0  T
   6    -10.7276435 -0.128034E-09  0.188E-04    4.40     216.7  T
     SCC iter.                  ...        0 min,  0.000 sec
     gradient                   ...        0 min,  0.000 sec
 * total energy  :   -10.6162299 Eh     change        0.1983484E-05 Eh
   gradient norm :     0.0040387 Eh/a0  converged?    E=F G=F D=F
   step length   :     0.0136016 a0

........................................................................
.............................. CYCLE   17 ..............................
........................................................................

 iter      E             dE          RMSdq      gap      omega  full diag
   1    -10.7270500 -0.107271E+02  0.137E-02    4.40       0.0  T
   2    -10.7270501 -0.498435E-07  0.803E-03    4.40       5.1  T
   3    -10.7270500  0.144074E-07  0.363E-03    4.40      11.2  T
   4    -10.7270501 -0.395177E-07  0.983E-04    4.40      41.5  T
   5    -10.7270501 -0.630088E-09  0.291E-04    4.40     140.3  T
     SCC iter.                  ...        0 min,  0.000 sec
     gradient                   ...        0 min,  0.000 sec
 * total energy  :   -10.6162405 Eh     change       -0.1065526E-04 Eh
   gradient norm :     0.0004444 Eh/a0  converged?    E=F G=T D=F
   step length   :     0.0069922 a0

........................................................................
.............................. CYCLE   18 ..............................
........................................................................

 iter      E             dE          RMSdq      gap      omega  full diag
   1    -10.7270424 -0.107270E+02  0.508E-03    4.39       0.0  T
   2    -10.7270424 -0.195888E-07  0.308E-03    4.40      13.2  T
   3    -10.7270424 -0.302139E-08  0.168E-03    4.40      24.3  T
   4    -10.7270424 -0.385815E-08  0.356E-04    4.40     114.6  T
   5    -10.7270424 -0.176929E-09  0.128E-04    4.40     319.5  T
     SCC iter.                  ...        0 min,  0.000 sec
     gradient                   ...        0 min,  0.000 sec
 * total energy  :   -10.6162411 Eh     change       -0.6105373E-06 Eh
   gradient norm :     0.0002629 Eh/a0  converged?    E=T G=T D=F
   step length   :     0.0035250 a0

   *** GEOMETRY OPTIMIZATION CONVERGED AFTER 18 CYCLES ***

------------------------------------------------------------------------
 total energy gain   :        -0.1191570 Eh      -74.7722 kcal/mol
 total RMSD          :         0.7611321 a0        0.4028 Å
 total power (kW/mol):       -17.3803772 (step)********** (real)
------------------------------------------------------------------------

 L-ANCopt (total)              0 d,  0 h,  0 min,  0.010 sec
 setup                          ...        0 min,  0.000 sec (  0.825%)
 model hessian                  ...        0 min,  0.000 sec (  0.516%)
 ANC generation                 ...        0 min,  0.000 sec (  0.567%)
 coordinate transformation      ...        0 min,  0.000 sec (  0.152%)
 Rational function              ...        0 min,  0.000 sec (  0.177%)
 singlepoint calculation        ...        0 min,  0.009 sec ( 93.438%)
 optimization log               ...        0 min,  0.000 sec (  2.388%)
 hessian update                 ...        0 min,  0.000 sec (  0.179%)

================
 final structure:
================
6
 xtb: 6.7.1 (unknown)
O            0.81666996034693       -0.65268626371129       -0.11805968107547
N           -1.12751734329887        0.44923489775464       -0.23827359890292
C           -0.20199218034340       -0.01233142445384        0.46516607505215
H            1.46334360919543       -0.96163298038018        0.52599659353337
H           -1.86453170959786        0.92202152668583        0.27048246004229
H           -0.13248641624920        0.05671305957808        1.56812512574701

 Bond Distances (Angstroems)
 ---------------------------
O1-C3=1.3371         O1-H4=0.9636         N2-C3=1.2508         N2-H5=1.0127         C3-O1=1.3371         C3-N2=1.2508         
C3-H6=1.1073         H4-O1=0.9636         H5-N2=1.0127         H6-C3=1.1073         
 C  H  Rav=1.1073 sigma=0.0000  Rmin=1.1073  Rmax=1.1073     1
 N  H  Rav=1.0127 sigma=0.0000  Rmin=1.0127  Rmax=1.0127     1
 N  C  Rav=1.2508 sigma=0.0000  Rmin=1.2508  Rmax=1.2508     1
 O  H  Rav=0.9636 sigma=0.0000  Rmin=0.9636  Rmax=0.9636     1
 O  C  Rav=1.3371 sigma=0.0000  Rmin=1.3371  Rmax=1.3371     1

 selected bond angles (degree)
 --------------------
H4-O1-C3=111.92                H5-N2-C3=115.36                N2-C3-O1=119.68                H6-C3-O1=114.61                
H6-C3-N2=125.71                

 selected dihedral angles (degree)
 ---------------------------------
N2-C3-O1-H4=180.07            H6-C3-O1-H4=  0.14            O1-C3-N2-H5=180.06            H6-C3-N2-H5=  0.00            

 CMA Distance (Angstroems)
 ---------------------------
R(CMA):  1.5495
           -------------------------------------------------
          |                Final Singlepoint                |
           -------------------------------------------------

          ...................................................
          :                      SETUP                      :
          :.................................................:
          :  # basis functions                  15          :
          :  # atomic orbitals                  15          :
          :  # shells                            9          :
          :  # electrons                        18          :
          :  max. iterations                   250          :
          :  Hamiltonian                  GFN2-xTB          :
          :  restarted?                      false          :
          :  GBSA solvation                  false          :
          :  PC potential                    false          :
          :  electronic temp.          300.0000000     K    :
          :  accuracy                    1.0000000          :
          :  -> integral cutoff          0.2500000E+02      :
          :  -> integral neglect         0.1000000E-07      :
          :  -> SCF convergence          0.1000000E-05 Eh   :
          :  -> wf. convergence          0.1000000E-03 e    :
          :  Broyden damping             0.4000000          :
          :  net charge                          0          :
          :  unpaired electrons                  0          :
          ...................................................

 iter      E             dE          RMSdq      gap      omega  full diag
   1    -10.7270424 -0.107270E+02  0.274E-05    4.40       0.0  T
   2    -10.7270424 -0.335731E-12  0.152E-05    4.40    2681.9  T
   3    -10.7270424  0.355271E-13  0.916E-06    4.40    4456.6  T

   *** convergence criteria satisfied after 3 iterations ***

         #    Occupation            Energy/Eh            Energy/eV
      -------------------------------------------------------------
         1        2.0000           -0.7324179             -19.9301
       ...           ...                  ...                  ...
         3        2.0000           -0.6134060             -16.6916
         4        2.0000           -0.5999097             -16.3244
         5        2.0000           -0.5477360             -14.9047
         6        2.0000           -0.5114928             -13.9184
         7        2.0000           -0.5062094             -13.7747
         8        2.0000           -0.4350645             -11.8387
         9        2.0000           -0.3861198             -10.5069 (HOMO)
        10                         -0.2245903              -6.1114 (LUMO)
        11                          0.0363991               0.9905
        12                          0.1196671               3.2563
        13                          0.1585354               4.3140
        14                          0.3259260               8.8689
        15                          0.5807303              15.8025
      -------------------------------------------------------------
                  HL-Gap            0.1615295 Eh            4.3954 eV
             Fermi-level           -0.3053551 Eh           -8.3091 eV

 SCC (total)                   0 d,  0 h,  0 min,  0.000 sec
 SCC setup                      ...        0 min,  0.000 sec (  4.169%)
 Dispersion                     ...        0 min,  0.000 sec (  1.167%)
 classical contributions        ...        0 min,  0.000 sec (  0.723%)
 integral evaluation            ...        0 min,  0.000 sec ( 19.844%)
 iterations                     ...        0 min,  0.000 sec ( 22.790%)
 molecular gradient             ...        0 min,  0.000 sec ( 44.969%)
 printout                       ...        0 min,  0.000 sec (  5.614%)

         :::::::::::::::::::::::::::::::::::::::::::::::::::::
         ::                     SUMMARY                     ::
         :::::::::::::::::::::::::::::::::::::::::::::::::::::
         :: total energy             -10.616241116349 Eh    ::
         :: gradient norm              0.000273527808 Eh/a0 ::
         :: HOMO-LUMO gap              4.395441313348 eV    ::
         ::.................................................::
         :: SCC energy               -10.727042463389 Eh    ::
         :: -> isotropic ES            0.029696881313 Eh    ::
         :: -> anisotropic ES          0.004822660529 Eh    ::
         :: -> anisotropic XC          0.006785809943 Eh    ::
         :: -> dispersion             -0.001666994466 Eh    ::
         :: repulsion energy           0.110801347040 Eh    ::
         :: add. restraining           0.000000000000 Eh    ::
         :: total charge               0.000000000000 e     ::
         :::::::::::::::::::::::::::::::::::::::::::::::::::::

           ------------------------------------------------- 
          |                Numerical Hessian                |
           ------------------------------------------------- 
step length          :   0.00500
SCC accuracy         :   0.30000
Hessian scale factor :   1.00000
frozen atoms in %    :   0.00000    0
RMS gradient         :   0.00027
estimated CPU  time      0.00 min
estimated wall time      0.00 min

writing file <hessian>.

 projected vibrational frequencies (cm⁻¹)
eigval :       -0.00    -0.00    -0.00    -0.00     0.00     0.00
eigval :      370.84   550.49   779.85   971.38  1057.64  1148.70
eigval :     1272.00  1391.11  1749.96  2734.33  3410.27  3535.59
           -------------------------------------------------
          |                Property Printout                |
           -------------------------------------------------

    * Orbital Energies and Occupations

         #    Occupation            Energy/Eh            Energy/eV
      -------------------------------------------------------------
         1        2.0000           -0.7324180             -19.9301
         2        2.0000           -0.6668731             -18.1465
         3        2.0000           -0.6134060             -16.6916
         4        2.0000           -0.5999098             -16.3244
         5        2.0000           -0.5477361             -14.9047
         6        2.0000           -0.5114928             -13.9184
         7        2.0000           -0.5062094             -13.7747
         8        2.0000           -0.4350645             -11.8387
         9        2.0000           -0.3861198             -10.5069 (HOMO)
        10                         -0.2245903              -6.1114 (LUMO)
        11                          0.0363991               0.9905
        12                          0.1196671               3.2563
        13                          0.1585354               4.3140
        14                          0.3259260               8.8689
        15                          0.5807303              15.8025
      -------------------------------------------------------------
                  HL-Gap            0.1615294 Eh            4.3954 eV
             Fermi-level           -0.3053551 Eh           -8.3091 eV

     #   Z          covCN         q      C6AA      α(0)
     1   8 O        1.662    -0.348    19.868     6.017
     2   7 N        1.774    -0.327    29.300     8.016
     3   6 C        2.687     0.230    23.177     7.879
     4   1 H        0.805     0.313     0.682     1.297
     5   1 H        0.860     0.155     1.371     1.834
     6   1 H        0.922    -0.022     3.476     2.916

 Mol. C6AA /au·bohr⁶  :        342.034510
 Mol. C8AA /au·bohr⁸  :       7146.558044
 Mol. α(0) /au        :         27.958287


Wiberg/Mayer (AO) data.
largest (>0.10) Wiberg bond orders for each atom

 ---------------------------------------------------------------------------
     #   Z sym  total        # sym  WBO       # sym  WBO       # sym  WBO
 ---------------------------------------------------------------------------
     1   8 O    2.199 --     3 C    1.132     4 H    0.886     2 N    0.147
     2   7 N    3.024 --     3 C    1.869     5 H    0.950     1 O    0.147
     3   6 C    3.940 --     2 N    1.869     1 O    1.132     6 H    0.933
     4   1 H    0.902 --     1 O    0.886
     5   1 H    0.976 --     2 N    0.950
     6   1 H    1.000 --     3 C    0.933
 ---------------------------------------------------------------------------

Topologies differ in total number of bonds
Writing topology from bond orders to xtbtopo.mol

molecular dipole:
                 x           y           z       tot (Debye)
 q only:        0.400      -0.157       0.751
   full:        0.530      -0.168       1.396       3.818
molecular quadrupole (traceless):
                xx          xy          yy          xz          yz          zz
 q only:        1.539      -1.900      -0.402       0.493      -0.617      -1.138
  q+dip:        1.502      -2.275      -0.730       0.278      -0.721      -0.772
   full:        1.702      -2.093      -0.267       0.008      -0.687      -1.434

           -------------------------------------------------
          |                Geometry Summary                 |
           -------------------------------------------------

      molecular mass/u    :       45.0406663
   center of mass at/Å    :       -0.1263429      -0.0950503       0.0609246
  moments of inertia/u·Å² :        0.6273758E+01   0.4496558E+02   0.5123933E+02
rotational constants/cm⁻¹ :        0.2687007E+01   0.3749008E+00   0.3289979E+00

 * 3 selected distances

     #   Z          #   Z                                           value/Å
     1   8 O        3   6 C                                       1.3371161 (max)
     2   7 N        3   6 C                                       1.2507869
     1   8 O        4   1 H                                       0.9635578 (min)

 * 3 distinct bonds (by element types)

   Z      Z             #   av. dist./Å        max./Å        min./Å
   6 C    7 N           1     1.2507869     1.2507869     1.2507869
   1 H    8 O           1     0.9635578     0.9635578     0.9635578
   6 C    8 O           1     1.3371161     1.3371161     1.3371161

           -------------------------------------------------
          |               Frequency Printout                |
           -------------------------------------------------
 projected vibrational frequencies (cm⁻¹)
eigval :       -0.00    -0.00    -0.00    -0.00     0.00     0.00
eigval :      370.84   550.49   779.85   971.38  1057.64  1148.70
eigval :     1272.00  1391.11  1749.96  2734.33  3410.27  3535.59
 reduced masses (amu)
   1: 13.56   2: 12.41   3: 12.72   4: 13.79   5: 11.50   6:  9.12   7:  2.64   8: 11.64
   9:  4.03  10:  4.04  11:  6.71  12:  3.68  13:  8.25  14:  3.31  15: 12.28  16:  1.68
  17:  1.89  18:  1.87
 IR intensities (km·mol⁻¹)
   1: 16.16   2:  6.37   3:  6.26   4:  1.02   5:  5.87   6: 61.12   7:103.46   8:  2.20
   9: 31.78  10: 32.00  11:220.27  12: 42.20  13:234.33  14: 36.23  15:303.41  16:205.35
  17:  1.63  18: 34.36
 Raman intensities (Ä⁴*amu⁻¹)
   1:  0.00   2:  0.00   3:  0.00   4:  0.00   5:  0.00   6:  0.00   7:  0.00   8:  0.00
   9:  0.00  10:  0.00  11:  0.00  12:  0.00  13:  0.00  14:  0.00  15:  0.00  16:  0.00
  17:  0.00  18:  0.00
Molecule has the following symmetry elements: (sigma) 
It seems to be the Cs point group
 output can be read by thermo (or use thermo option).
 writing <g98.out> molden fake output.
 recommended (thermochemical) frequency scaling factor: 1.0
           -------------------------------------------------
          |             Thermodynamic Functions             |
           -------------------------------------------------

cs  symmetry found (for desy threshold:  0.10E+00) used in thermo

          ...................................................
          :                      SETUP                      :
          :.................................................:
          :  # frequencies                          12      :
          :  # imaginary freq.                       0      :
          :  linear?                             false      :
          :  only rotor calc.                    false      :
          :  symmetry                               cs      :
          :  rotational number                       1      :
          :  scaling factor                  1.0000000      :
          :  rotor cutoff                   50.0000000 cm⁻¹ :
          :  imag. cutoff                  -20.0000000 cm⁻¹ :
          :.................................................:

    mode    ω/cm⁻¹     T·S(HO)/kcal·mol⁻¹    T·S(FR)/kcal·mol⁻¹   T·S(vib)
   ------------------------------------------------------------------------
   ------------------------------------------------------------------------

   temp. (K)  partition function   enthalpy   heat capacity  entropy
                                   cal/mol     cal/K/mol   cal/K/mol   J/K/mol
 298.15  VIB   1.35                  455.420      4.626      2.128
         ROT  0.918E+04              888.752      2.981     21.115
         INT  0.124E+05             1344.172      7.607     23.243
         TR   0.292E+27             1481.254      4.968     37.324
         TOT                        2825.4261    12.5755    60.5663   253.4096

       T/K    H(0)-H(T)+PV         H(T)/Eh          T*S/Eh         G(T)/Eh
   ------------------------------------------------------------------------
    298.15    0.450260E-02    0.477244E-01    0.287770E-01    0.189474E-01
   ------------------------------------------------------------------------

         :::::::::::::::::::::::::::::::::::::::::::::::::::::
         ::                  THERMODYNAMIC                  ::
         :::::::::::::::::::::::::::::::::::::::::::::::::::::
         :: total free energy         -10.597293734933 Eh   ::
         ::.................................................::
         :: total energy              -10.616241116349 Eh   ::
         :: zero point energy           0.043221799356 Eh   ::
         :: G(RRHO) w/o ZPVE           -0.024274417940 Eh   ::
         :: G(RRHO) contrib.            0.018947381416 Eh   ::
         :::::::::::::::::::::::::::::::::::::::::::::::::::::

optimized geometry written to: xtbopt.xyz


           -------------------------------------------------
          | TOTAL ENERGY              -10.616241116349 Eh   |
          | TOTAL ENTHALPY            -10.568516713969 Eh   |
          | TOTAL FREE ENERGY         -10.597293734933 Eh   |
          | GRADIENT NORM               0.000273487070 Eh/α |
          | HOMO-LUMO GAP               4.395440025558 eV   |
           -------------------------------------------------

------------------------------------------------------------------------
 * finished run on 2026/09/04 at 18:32:13.071     
------------------------------------------------------------------------
 total:
 * wall-time:     0 d,  0 h,  0 min,  0.032 sec
 *  cpu-time:     0 d,  0 h,  0 min,  0.031 sec
 * ratio c/w:     0.992 speedup
 SCF:
 * wall-time:     0 d,  0 h,  0 min,  0.001 sec
 *  cpu-time:     0 d,  0 h,  0 min,  0.001 sec
 * ratio c/w:     0.988 speedup
 ANC optimizer:
 * wall-time:     0 d,  0 h,  0 min,  0.010 sec
 *  cpu-time:     0 d,  0 h,  0 min,  0.010 sec
 * ratio c/w:     0.997 speedup
 analytical hessian:
 * wall-time:     0 d,  0 h,  0 min,  0.017 sec
 *  cpu-time:     0 d,  0 h,  0 min,  0.017 sec
normal termination of xtb
 * ratio c/w:     0.994 speedup

