6
 energy: -10.616241116349 gnorm: 0.000273527808 xtb: 6.7.1 (unknown)
O            0.81666613077034       -0.65269074582612       -0.11806139263809
N           -1.12751582282479        0.44924038555327       -0.23827044718591
C           -0.20199062116634       -0.01232955496561        0.46516680165672
H            1.46334041015309       -0.96163972438712        0.52599316386272
H           -1.86452593770877        0.92203176141300        0.27048735925256
H           -0.13248064549440        0.05671649014046        1.56812548921694
